%mem=8GB
%nprocshare=4
%chk=geometry_chks/hexabromobenzene.chk
# opt am1 

Hexabromobenzene

0 1
 C                 -1.85672501    1.43274852    0.00000000
 C                 -0.46156501    1.43274852    0.00000000
 C                  0.23597299    2.64049952    0.00000000
 C                 -0.46168101    3.84900852   -0.00119900
 C                 -1.85650601    3.84893052   -0.00167800
 C                 -2.55410701    2.64072452   -0.00068200
 Br                 2.14597267    2.64063847    0.00110117
 Br                 0.49394417    5.50275593   -0.00130148
 Br                -2.81192545    5.50279598   -0.00333311
 Br                -4.46410696    2.64104239   -0.00099466
 Br                -2.81164484   -0.22140610    0.00078164
 Br                 0.49287978   -0.22167885    0.00228403

