%mem=8GB
%nprocshare=4
%chk=geometry_chks/monobromobenzene.chk
# opt am1 geom=connectivity

Bromobenzene

0 1
 C                 -0.42331062    4.82518213    1.52723137
 C                  0.97184938    4.82518213    1.52723137
 C                  1.66938738    6.03293313    1.52723137
 C                  0.97173338    7.24144213    1.52603237
 C                 -0.42309162    7.24136413    1.52555337
 C                 -1.12069262    6.03315813    1.52654937
 H                 -0.97306962    3.87286513    1.52768137
 H                  2.76906738    6.03301313    1.52786537
 H                  1.52193338    8.19358513    1.52597337
 H                 -0.97321362    8.19364513    1.52460037
 H                 -2.22029662    6.03334113    1.52636937
 Br                 1.92629417    3.17075476    1.52951540

 1 2 1.5 6 1.5 7 1.0
 2 3 1.5 12 1.0
 3 4 1.5 8 1.0
 4 5 1.5 9 1.0
 5 6 1.5 10 1.0
 6 11 1.0
 7
 8
 9
 10
 11
 12

