%mem=8GB
%nprocshare=4
%oldchk=geometry_chks/123ClBzAnionRadical.chk
%chk=frequency_chks/123ClBzAnionRadical_Freq.chk
# opt freq 6-311++g(d,p) guess=read geom=allcheck m062x

123ClBzAnionRadical

