%mem=8GB
%nprocshare=4
%oldchk=geometry_chks/135ClBz.chk
%chk=frequency_chks/135ClBz_Freq.chk
# opt freq 6-311++g(d,p) guess=read geom=allcheck m062x

135ClBz

