%mem=8GB
%nprocshare=4
%oldchk=geometry_chks/_23ClBzNeutralRadical.chk
%chk=frequency_chks/_23ClBzNeutralRadical_Freq.chk
# opt freq 6-311++g(d,p) guess=read geom=allcheck m062x

_23ClBzNeutralRadical

