%mem=8GB
%nprocshare=4
%oldchk=geometry_chks/_24ClBzNeutralRadical.chk
%chk=frequency_chks/_24ClBzNeutralRadical_Freq.chk
# opt freq 6-311++g(d,p) guess=read geom=allcheck m062x

_24ClBzNeutralRadical

