%chk=135tri/135tribromobenzene.chk
# opt am1 

135Tribromobenzene

0 1
 C                 -1.85672501    1.43274852    0.00000000
 C                 -0.46156501    1.43274852    0.00000000
 C                  0.23597299    2.64049952    0.00000000
 C                 -0.46168101    3.84900852   -0.00119900
 C                 -1.85650601    3.84893052   -0.00167800
 C                 -2.55410701    2.64072452   -0.00068200
 Br                 2.14597267    2.64063847    0.00110117
 H                  0.07366922    4.77545341   -0.00125641
 H                 -3.62410698    2.64090259   -0.00085716
 H                  0.07312396    0.50592272    0.00127954
 Br                -2.81164484   -0.22140610    0.00078164
 Br                -2.81192544    5.50279598   -0.00333311

