%mem=2GB
%nprocshare=1
%chk=geometry_chks/_23ClBzNeutralRadical.chk
# opt am1

Neutral Radical (removed 1) _23

0 2
C  -3.20928   0.19943  0.00000
C  -2.01150   0.93555  0.00000
C  -0.77511   0.26630  0.00000
C  -0.73650  -1.13907  0.00000
C  -1.93429  -1.87519  0.00000
C  -3.17067  -1.20594  0.00000
Cl -4.76193   1.03987 -0.00000
Cl  0.81614  -1.97951  0.00000
H  -1.88580  -3.64003  0.00000
H  -2.05998   2.70040 -0.00000
H   0.72905   1.19071  0.00000

