 Entering Gaussian System, Link 0=g16
 Initial command:
 /share/software/user/restricted/gaussian/g16.B01/l1.exe "/home/users/jlapier/Chloroaromatics/Gau-13722.inp" -scrdir="/home/users/jlapier/Chloroaromatics/"
 Entering Link 1 = /share/software/user/restricted/gaussian/g16.B01/l1.exe PID=     13723.
  
 Copyright (c) 1988-2017, Gaussian, Inc.  All Rights Reserved.
  
 This is part of the Gaussian(R) 16 program.  It is based on
 the Gaussian(R) 09 system (copyright 2009, Gaussian, Inc.),
 the Gaussian(R) 03 system (copyright 2003, Gaussian, Inc.),
 the Gaussian(R) 98 system (copyright 1998, Gaussian, Inc.),
 the Gaussian(R) 94 system (copyright 1995, Gaussian, Inc.),
 the Gaussian 92(TM) system (copyright 1992, Gaussian, Inc.),
 the Gaussian 90(TM) system (copyright 1990, Gaussian, Inc.),
 the Gaussian 88(TM) system (copyright 1988, Gaussian, Inc.),
 the Gaussian 86(TM) system (copyright 1986, Carnegie Mellon
 University), and the Gaussian 82(TM) system (copyright 1983,
 Carnegie Mellon University). Gaussian is a federally registered
 trademark of Gaussian, Inc.
  
 This software contains proprietary and confidential information,
 including trade secrets, belonging to Gaussian, Inc.
  
 This software is provided under written license and may be
 used, copied, transmitted, or stored only in accord with that
 written license.
  
 The following legend is applicable only to US Government
 contracts under FAR:
  
                    RESTRICTED RIGHTS LEGEND
  
 Use, reproduction and disclosure by the US Government is
 subject to restrictions as set forth in subparagraphs (a)
 and (c) of the Commercial Computer Software - Restricted
 Rights clause in FAR 52.227-19.
  
 Gaussian, Inc.
 340 Quinnipiac St., Bldg. 40, Wallingford CT 06492
  
  
 ---------------------------------------------------------------
 Warning -- This program may not be used in any manner that
 competes with the business of Gaussian, Inc. or will provide
 assistance to any competitor of Gaussian, Inc.  The licensee
 of this program is prohibited from giving any competitor of
 Gaussian, Inc. access to this program.  By using this program,
 the user acknowledges that Gaussian, Inc. is engaged in the
 business of creating and licensing software in the field of
 computational chemistry and represents and warrants to the
 licensee that it is not a competitor of Gaussian, Inc. and that
 it will not use this program in any manner prohibited above.
 ---------------------------------------------------------------
  

 Cite this work as:
 Gaussian 16, Revision B.01,
 M. J. Frisch, G. W. Trucks, H. B. Schlegel, G. E. Scuseria, 
 M. A. Robb, J. R. Cheeseman, G. Scalmani, V. Barone, 
 G. A. Petersson, H. Nakatsuji, X. Li, M. Caricato, A. V. Marenich, 
 J. Bloino, B. G. Janesko, R. Gomperts, B. Mennucci, H. P. Hratchian, 
 J. V. Ortiz, A. F. Izmaylov, J. L. Sonnenberg, D. Williams-Young, 
 F. Ding, F. Lipparini, F. Egidi, J. Goings, B. Peng, A. Petrone, 
 T. Henderson, D. Ranasinghe, V. G. Zakrzewski, J. Gao, N. Rega, 
 G. Zheng, W. Liang, M. Hada, M. Ehara, K. Toyota, R. Fukuda, 
 J. Hasegawa, M. Ishida, T. Nakajima, Y. Honda, O. Kitao, H. Nakai, 
 T. Vreven, K. Throssell, J. A. Montgomery, Jr., J. E. Peralta, 
 F. Ogliaro, M. J. Bearpark, J. J. Heyd, E. N. Brothers, K. N. Kudin, 
 V. N. Staroverov, T. A. Keith, R. Kobayashi, J. Normand, 
 K. Raghavachari, A. P. Rendell, J. C. Burant, S. S. Iyengar, 
 J. Tomasi, M. Cossi, J. M. Millam, M. Klene, C. Adamo, R. Cammi, 
 J. W. Ochterski, R. L. Martin, K. Morokuma, O. Farkas, 
 J. B. Foresman, and D. J. Fox, Gaussian, Inc., Wallingford CT, 2016.
 
 ******************************************
 Gaussian 16:  ES64L-G16RevB.01 20-Dec-2017
                 3-Apr-2026 
 ******************************************
 %mem=8GB
 %nprocshare=4
 Will use up to    4 processors via shared memory.
 %chk=frequency_chks/1245tetrachlorobenzene_anion_product_Freq.chk
 ------------------------------
 # opt freq 6-311++g(d,p) m062x
 ------------------------------
 1/18=20,19=15,26=3,38=1/1,3;
 2/9=110,12=2,17=6,18=5,40=1/2;
 3/5=4,6=6,7=1111,11=2,25=1,30=1,71=1,74=-55/1,2,3;
 4//1;
 5/5=2,38=5/2;
 6/7=2,8=2,9=2,10=2,28=1/1;
 7//1,2,3,16;
 1/18=20,19=15,26=3/3(2);
 2/9=110/2;
 99//99;
 2/9=110/2;
 3/5=4,6=6,7=1111,11=2,25=1,30=1,71=1,74=-55/1,2,3;
 4/5=5,16=3,69=1/1;
 5/5=2,38=5/2;
 7//1,2,3,16;
 1/18=20,19=15,26=3/3(-5);
 2/9=110/2;
 6/7=2,8=2,9=2,10=2,19=2,28=1/1;
 99/9=1/99;
 -------------------------------------
 1,2,4, trichlorobenzene anion radical
 -------------------------------------
 Symbolic Z-matrix:
 Charge = -1 Multiplicity = 1
 C                    -1.2167    1.09111   0. 
 C                     0.00056   1.78435   0. 
 C                     1.21018   1.08147   0. 
 C                     1.20599  -0.31489   0. 
 C                    -0.00422  -1.01221   0. 
 C                    -1.2192   -0.31558   0. 
 Cl                   -2.72344  -1.22607   0. 
 Cl                   -2.71801   2.00647   0. 
 Cl                    2.7352    1.94398   0. 
 H                     0.00627  -2.09422   0. 
 H                     0.00647   2.86717   0. 
 

 GradGradGradGradGradGradGradGradGradGradGradGradGradGradGradGradGradGrad
 Berny optimization.
 Initialization pass.
                           ----------------------------
                           !    Initial Parameters    !
                           ! (Angstroms and Degrees)  !
 --------------------------                            --------------------------
 ! Name  Definition              Value          Derivative Info.                !
 --------------------------------------------------------------------------------
 ! R1    R(1,2)                  1.4008         estimate D2E/DX2                !
 ! R2    R(1,6)                  1.4067         estimate D2E/DX2                !
 ! R3    R(1,8)                  1.7584         estimate D2E/DX2                !
 ! R4    R(2,3)                  1.399          estimate D2E/DX2                !
 ! R5    R(2,11)                 1.0828         estimate D2E/DX2                !
 ! R6    R(3,4)                  1.3964         estimate D2E/DX2                !
 ! R7    R(3,9)                  1.752          estimate D2E/DX2                !
 ! R8    R(4,5)                  1.3967         estimate D2E/DX2                !
 ! R9    R(5,6)                  1.4005         estimate D2E/DX2                !
 ! R10   R(5,10)                 1.0821         estimate D2E/DX2                !
 ! R11   R(6,7)                  1.7583         estimate D2E/DX2                !
 ! A1    A(2,1,6)              119.7638         estimate D2E/DX2                !
 ! A2    A(2,1,8)              118.9671         estimate D2E/DX2                !
 ! A3    A(6,1,8)              121.2691         estimate D2E/DX2                !
 ! A4    A(1,2,3)              120.1785         estimate D2E/DX2                !
 ! A5    A(1,2,11)             119.9747         estimate D2E/DX2                !
 ! A6    A(3,2,11)             119.8468         estimate D2E/DX2                !
 ! A7    A(2,3,4)              119.9878         estimate D2E/DX2                !
 ! A8    A(2,3,9)              120.3489         estimate D2E/DX2                !
 ! A9    A(4,3,9)              119.6632         estimate D2E/DX2                !
 ! A10   A(3,4,5)              120.1223         estimate D2E/DX2                !
 ! A11   A(4,5,6)              120.221          estimate D2E/DX2                !
 ! A12   A(4,5,10)             119.3952         estimate D2E/DX2                !
 ! A13   A(6,5,10)             120.3838         estimate D2E/DX2                !
 ! A14   A(1,6,5)              119.7266         estimate D2E/DX2                !
 ! A15   A(1,6,7)              121.2877         estimate D2E/DX2                !
 ! A16   A(5,6,7)              118.9857         estimate D2E/DX2                !
 ! D1    D(6,1,2,3)              0.0            estimate D2E/DX2                !
 ! D2    D(6,1,2,11)           180.0            estimate D2E/DX2                !
 ! D3    D(8,1,2,3)            180.0            estimate D2E/DX2                !
 ! D4    D(8,1,2,11)             0.0            estimate D2E/DX2                !
 ! D5    D(2,1,6,5)              0.0            estimate D2E/DX2                !
 ! D6    D(2,1,6,7)            180.0            estimate D2E/DX2                !
 ! D7    D(8,1,6,5)            180.0            estimate D2E/DX2                !
 ! D8    D(8,1,6,7)              0.0            estimate D2E/DX2                !
 ! D9    D(1,2,3,4)              0.0            estimate D2E/DX2                !
 ! D10   D(1,2,3,9)            180.0            estimate D2E/DX2                !
 ! D11   D(11,2,3,4)           180.0            estimate D2E/DX2                !
 ! D12   D(11,2,3,9)             0.0            estimate D2E/DX2                !
 ! D13   D(2,3,4,5)              0.0            estimate D2E/DX2                !
 ! D14   D(9,3,4,5)            180.0            estimate D2E/DX2                !
 ! D15   D(3,4,5,6)              0.0            estimate D2E/DX2                !
 ! D16   D(3,4,5,10)           180.0            estimate D2E/DX2                !
 ! D17   D(4,5,6,1)              0.0            estimate D2E/DX2                !
 ! D18   D(4,5,6,7)            180.0            estimate D2E/DX2                !
 ! D19   D(10,5,6,1)           180.0            estimate D2E/DX2                !
 ! D20   D(10,5,6,7)             0.0            estimate D2E/DX2                !
 --------------------------------------------------------------------------------
 Trust Radius=3.00D-01 FncErr=1.00D-07 GrdErr=1.00D-06 EigMax=2.50D+02 EigMin=1.00D-04
 Number of steps in this run=     57 maximum allowed number of steps=    100.
 GradGradGradGradGradGradGradGradGradGradGradGradGradGradGradGradGradGrad

                          Input orientation:                          
 ---------------------------------------------------------------------
 Center     Atomic      Atomic             Coordinates (Angstroms)
 Number     Number       Type             X           Y           Z
 ---------------------------------------------------------------------
      1          6           0       -1.216697    1.091109    0.000000
      2          6           0        0.000559    1.784345    0.000000
      3          6           0        1.210183    1.081467    0.000000
      4          6           0        1.205995   -0.314886    0.000000
      5          6           0       -0.004221   -1.012210    0.000000
      6          6           0       -1.219201   -0.315579    0.000000
      7         17           0       -2.723442   -1.226066    0.000000
      8         17           0       -2.718007    2.006473    0.000000
      9         17           0        2.735201    1.943978    0.000000
     10          1           0        0.006265   -2.094220    0.000000
     11          1           0        0.006471    2.867166    0.000000
 ---------------------------------------------------------------------
                    Distance matrix (angstroms):
                    1          2          3          4          5
     1  C    0.000000
     2  C    1.400817   0.000000
     3  C    2.426899   1.399010   0.000000
     4  C    2.801117   2.420713   1.396359   0.000000
     5  C    2.427766   2.796559   2.420384   1.396739   0.000000
     6  C    1.406691   2.428476   2.802435   2.425195   1.400525
     7  Cl   2.763979   4.059896   4.560494   4.033698   2.727617
     8  Cl   1.758358   2.727625   4.035630   4.559221   4.059197
     9  Cl   4.042880   2.739297   1.752028   2.727808   4.030319
    10  H    3.412031   3.878569   3.396234   2.146015   1.082061
    11  H    2.156506   1.082837   2.153519   3.400634   3.879390
                    6          7          8          9         10
     6  C    0.000000
     7  Cl   1.758331   0.000000
     8  Cl   2.763756   3.232543   0.000000
     9  Cl   4.554436   6.312365   5.453565   0.000000
    10  H    2.159937   2.864435   4.923143   4.873821   0.000000
    11  H    3.410592   4.920058   2.857196   2.880667   4.961386
                   11
    11  H    0.000000
 Stoichiometry    C6H2Cl3(1-)
 Framework group  CS[SG(C6H2Cl3)]
 Deg. of freedom    19
 Full point group                 CS      NOp   2
 Largest Abelian subgroup         CS      NOp   2
 Largest concise Abelian subgroup C1      NOp   1
                         Standard orientation:                         
 ---------------------------------------------------------------------
 Center     Atomic      Atomic             Coordinates (Angstroms)
 Number     Number       Type             X           Y           Z
 ---------------------------------------------------------------------
      1          6           0        0.000000    0.807794    0.000000
      2          6           0       -1.211131    0.103913    0.000000
      3          6           0       -1.211482   -1.295097    0.000000
      4          6           0       -0.002226   -1.993323    0.000000
      5          6           0        1.208900   -1.297583    0.000000
      6          6           0        1.217344    0.102917    0.000000
      7         17           0        2.760537    0.945701    0.000000
      8         17           0       -0.036734    2.565768    0.000000
      9         17           0       -2.723642   -2.179957    0.000000
     10          1           0        2.139031   -1.850496    0.000000
     11          1           0       -2.150204    0.643058    0.000000
 ---------------------------------------------------------------------
 Rotational constants (GHZ):           1.8460591           0.5879421           0.4459225
 Standard basis: 6-311++G(d,p) (5D, 7F)
 There are   183 symmetry adapted cartesian basis functions of A'  symmetry.
 There are    62 symmetry adapted cartesian basis functions of A"  symmetry.
 There are   174 symmetry adapted basis functions of A'  symmetry.
 There are    62 symmetry adapted basis functions of A"  symmetry.
   236 basis functions,   393 primitive gaussians,   245 cartesian basis functions
    45 alpha electrons       45 beta electrons
       nuclear repulsion energy       606.8684110079 Hartrees.
 NAtoms=   11 NActive=   11 NUniq=   11 SFac= 1.00D+00 NAtFMM=   60 NAOKFM=F Big=F
 Integral buffers will be    131072 words long.
 Raffenetti 2 integral format.
 Two-electron integral symmetry is turned on.
 One-electron integrals computed using PRISM.
 NBasis=   236 RedAO= T EigKep=  1.30D-06  NBF=   174    62
 NBsUse=   236 1.00D-06 EigRej= -1.00D+00 NBFU=   174    62
 ExpMin= 3.60D-02 ExpMax= 1.06D+05 ExpMxC= 3.62D+03 IAcc=3 IRadAn=         5 AccDes= 0.00D+00
 Harris functional with IExCor= 1009 and IRadAn=       5 diagonalized for initial guess.
 HarFok:  IExCor= 1009 AccDes= 0.00D+00 IRadAn=         5 IDoV= 1 UseB2=F ITyADJ=14
 ICtDFT=  3500011 ScaDFX=  1.000000  1.000000  1.000000  1.000000
 FoFCou: FMM=F IPFlag=           0 FMFlag=      100000 FMFlg1=           0
         NFxFlg=           0 DoJE=T BraDBF=F KetDBF=T FulRan=T
         wScrn=  0.000000 ICntrl=       500 IOpCl=  0 I1Cent=   200000004 NGrid=           0
         NMat0=    1 NMatS0=      1 NMatT0=    0 NMatD0=    1 NMtDS0=    0 NMtDT0=    0
 Petite list used in FoFCou.
 Initial guess orbital symmetries:
       Occupied  (A') (A') (A') (A') (A') (A') (A') (A') (A') (A')
                 (A') (A') (A') (A') (A') (A') (A") (A') (A') (A")
                 (A") (A') (A') (A') (A') (A') (A') (A') (A') (A')
                 (A') (A') (A") (A') (A') (A') (A") (A") (A') (A")
                 (A') (A") (A') (A') (A")
       Virtual   (A") (A") (A') (A') (A') (A') (A') (A") (A') (A')
                 (A") (A') (A') (A") (A") (A') (A') (A') (A') (A')
                 (A") (A') (A") (A') (A") (A') (A') (A') (A") (A')
                 (A') (A") (A') (A') (A') (A') (A") (A') (A') (A')
                 (A') (A') (A') (A') (A') (A') (A') (A') (A') (A')
                 (A') (A') (A') (A') (A") (A') (A") (A') (A') (A")
                 (A') (A") (A') (A') (A") (A') (A") (A') (A") (A")
                 (A') (A') (A") (A') (A') (A') (A') (A") (A') (A')
                 (A') (A") (A') (A") (A') (A") (A') (A') (A") (A')
                 (A") (A') (A") (A') (A') (A') (A') (A') (A") (A')
                 (A') (A") (A') (A') (A") (A') (A') (A") (A") (A')
                 (A') (A') (A') (A') (A') (A") (A') (A") (A') (A')
                 (A') (A") (A') (A") (A") (A') (A') (A") (A') (A')
                 (A") (A') (A') (A') (A") (A") (A") (A") (A') (A')
                 (A') (A') (A') (A') (A') (A") (A') (A') (A') (A")
                 (A') (A') (A") (A') (A") (A") (A') (A") (A') (A')
                 (A') (A') (A') (A') (A') (A') (A') (A') (A') (A')
                 (A') (A') (A') (A') (A') (A') (A') (A') (A') (A")
                 (A") (A") (A') (A') (A') (A') (A') (A') (A') (A')
                 (A')
 The electronic state of the initial guess is 1-A'.
 Keep R1 ints in memory in symmetry-blocked form, NReq=596869867.
 Requested convergence on RMS density matrix=1.00D-08 within 128 cycles.
 Requested convergence on MAX density matrix=1.00D-06.
 Requested convergence on             energy=1.00D-06.
 No special actions if energy rises.
 SCF Done:  E(RM062X) =  -1610.38442194     A.U. after   21 cycles
            NFock= 21  Conv=0.39D-08     -V/T= 2.0024

 **********************************************************************

            Population analysis using the SCF Density.

 **********************************************************************

 Orbital symmetries:
       Occupied  (A') (A') (A') (A') (A') (A') (A') (A') (A') (A')
                 (A') (A') (A') (A") (A') (A') (A") (A') (A') (A")
                 (A') (A') (A') (A') (A') (A') (A') (A') (A') (A')
                 (A') (A') (A') (A") (A') (A") (A') (A") (A') (A')
                 (A") (A') (A") (A") (A')
       Virtual   (A') (A') (A') (A') (A") (A') (A") (A') (A") (A')
                 (A") (A') (A') (A") (A') (A') (A') (A') (A") (A")
                 (A') (A') (A') (A") (A') (A') (A") (A") (A') (A')
                 (A") (A') (A') (A') (A') (A") (A') (A') (A') (A')
                 (A') (A') (A') (A') (A') (A') (A') (A') (A') (A')
                 (A') (A") (A') (A') (A") (A') (A") (A') (A') (A')
                 (A') (A") (A') (A") (A") (A') (A") (A") (A') (A')
                 (A') (A') (A") (A') (A') (A') (A') (A") (A') (A')
                 (A') (A') (A") (A') (A") (A") (A') (A") (A') (A')
                 (A") (A') (A') (A') (A') (A') (A') (A") (A') (A')
                 (A") (A') (A") (A') (A') (A') (A') (A") (A') (A")
                 (A") (A') (A') (A') (A') (A") (A') (A") (A') (A')
                 (A') (A") (A') (A") (A") (A') (A') (A") (A') (A')
                 (A") (A') (A') (A") (A') (A") (A") (A") (A') (A')
                 (A') (A') (A') (A') (A') (A') (A') (A') (A") (A')
                 (A') (A') (A") (A") (A") (A") (A') (A") (A') (A')
                 (A') (A') (A') (A') (A') (A') (A') (A') (A') (A')
                 (A') (A') (A') (A') (A') (A') (A') (A') (A') (A")
                 (A") (A") (A') (A') (A') (A') (A') (A') (A') (A')
                 (A')
 The electronic state is 1-A'.
 Alpha  occ. eigenvalues -- -102.55579-102.54803-102.52191 -10.47457 -10.47017
 Alpha  occ. eigenvalues --  -10.44358 -10.42055 -10.39663 -10.33583  -9.69826
 Alpha  occ. eigenvalues --   -9.69073  -9.66509  -7.42328  -7.41678  -7.41676
 Alpha  occ. eigenvalues --   -7.41560  -7.40938  -7.40922  -7.38976  -7.38380
 Alpha  occ. eigenvalues --   -7.38359  -0.87551  -0.82468  -0.82100  -0.75995
 Alpha  occ. eigenvalues --   -0.68261  -0.64539  -0.54640  -0.50558  -0.42792
 Alpha  occ. eigenvalues --   -0.40142  -0.38062  -0.35460  -0.34733  -0.33370
 Alpha  occ. eigenvalues --   -0.28866  -0.28710  -0.28343  -0.26379  -0.24693
 Alpha  occ. eigenvalues --   -0.23024  -0.22515  -0.15663  -0.13319  -0.06577
 Alpha virt. eigenvalues --    0.10752   0.11555   0.12570   0.14446   0.14641
 Alpha virt. eigenvalues --    0.14797   0.16577   0.17795   0.17829   0.18818
 Alpha virt. eigenvalues --    0.18819   0.19828   0.20033   0.20214   0.20891
 Alpha virt. eigenvalues --    0.21090   0.22770   0.23042   0.23333   0.24297
 Alpha virt. eigenvalues --    0.24415   0.25343   0.25766   0.25779   0.26940
 Alpha virt. eigenvalues --    0.27536   0.27761   0.29795   0.29916   0.30995
 Alpha virt. eigenvalues --    0.31378   0.32309   0.32969   0.33725   0.35252
 Alpha virt. eigenvalues --    0.36049   0.36151   0.36697   0.37449   0.37673
 Alpha virt. eigenvalues --    0.38366   0.40275   0.41781   0.42257   0.42796
 Alpha virt. eigenvalues --    0.43388   0.47458   0.47524   0.49227   0.51471
 Alpha virt. eigenvalues --    0.57547   0.58387   0.58391   0.60895   0.61885
 Alpha virt. eigenvalues --    0.61952   0.62750   0.63295   0.65790   0.66834
 Alpha virt. eigenvalues --    0.70284   0.71111   0.73585   0.75971   0.76651
 Alpha virt. eigenvalues --    0.77705   0.79276   0.79779   0.81017   0.83168
 Alpha virt. eigenvalues --    0.83766   0.86193   0.86322   0.88952   0.90488
 Alpha virt. eigenvalues --    0.92882   0.96638   0.96779   1.02590   1.02777
 Alpha virt. eigenvalues --    1.03640   1.04812   1.05232   1.05412   1.05773
 Alpha virt. eigenvalues --    1.06413   1.06587   1.08834   1.10094   1.10826
 Alpha virt. eigenvalues --    1.11058   1.11285   1.13075   1.14039   1.15234
 Alpha virt. eigenvalues --    1.17284   1.18571   1.20152   1.21619   1.27869
 Alpha virt. eigenvalues --    1.28378   1.33980   1.37599   1.38439   1.41313
 Alpha virt. eigenvalues --    1.41487   1.44746   1.46016   1.48845   1.49941
 Alpha virt. eigenvalues --    1.52631   1.64041   1.67954   1.72198   1.75824
 Alpha virt. eigenvalues --    1.77119   1.81001   1.86753   1.90645   1.91669
 Alpha virt. eigenvalues --    1.95520   1.98663   2.03835   2.08658   2.10395
 Alpha virt. eigenvalues --    2.12709   2.15770   2.17491   2.19982   2.26679
 Alpha virt. eigenvalues --    2.28200   2.30685   2.39496   2.40826   2.41724
 Alpha virt. eigenvalues --    2.45268   2.47504   2.49987   2.51221   2.57549
 Alpha virt. eigenvalues --    2.58159   2.64481   2.66091   2.66727   2.70527
 Alpha virt. eigenvalues --    2.74557   2.77847   2.84435   2.84948   2.89659
 Alpha virt. eigenvalues --    2.90031   2.97250   2.99075   2.99817   3.08652
 Alpha virt. eigenvalues --    3.10237   3.17304   3.28291   3.30959   3.33057
 Alpha virt. eigenvalues --    3.38536   3.46564   3.54432   3.70525   3.71829
 Alpha virt. eigenvalues --    3.97559   4.03137   4.11241   4.31672   4.97674
 Alpha virt. eigenvalues --   10.06255  10.11957  10.12753  23.61617  24.05287
 Alpha virt. eigenvalues --   24.11579  24.21246  24.26528  24.34541  26.01744
 Alpha virt. eigenvalues --   26.08326  26.10584  26.30793  26.32526  26.45620
 Alpha virt. eigenvalues --   26.72478  26.81852  27.01444 216.15972 216.22506
 Alpha virt. eigenvalues --  216.23103
          Condensed to atoms (all electrons):
               1          2          3          4          5          6
     1  C   35.904478 -16.877011   4.183241  -3.544330  -1.660579 -10.988923
     2  C  -16.877011  56.913398 -16.599889  -3.090782 -17.359356   0.797955
     3  C    4.183241 -16.599889  23.124779   1.952664   4.398956  -8.002270
     4  C   -3.544330  -3.090782   1.952664  12.138761   0.004749  -1.490759
     5  C   -1.660579 -17.359356   4.398956   0.004749  29.664764  -7.312528
     6  C  -10.988923   0.797955  -8.002270  -1.490759  -7.312528  33.966230
     7  Cl   0.440795   1.075347  -0.087294   0.388942  -1.071899  -1.433589
     8  Cl  -1.068558  -0.515201  -0.151891  -0.050218   0.937041   0.227843
     9  Cl  -0.483306   2.067328  -2.323595  -0.529422  -0.207005   0.121470
    10  H    0.078416  -0.075798  -0.091517   0.143291   0.476617  -0.420608
    11  H   -0.446099   1.142124  -0.371325   0.022019  -0.189476  -0.005430
               7          8          9         10         11
     1  C    0.440795  -1.068558  -0.483306   0.078416  -0.446099
     2  C    1.075347  -0.515201   2.067328  -0.075798   1.142124
     3  C   -0.087294  -0.151891  -2.323595  -0.091517  -0.371325
     4  C    0.388942  -0.050218  -0.529422   0.143291   0.022019
     5  C   -1.071899   0.937041  -0.207005   0.476617  -0.189476
     6  C   -1.433589   0.227843   0.121470  -0.420608  -0.005430
     7  Cl  17.667543  -0.274699  -0.011545   0.032627  -0.000171
     8  Cl  -0.274699  17.613957  -0.007722  -0.003782   0.002449
     9  Cl  -0.011545  -0.007722  17.977143   0.011806   0.108031
    10  H    0.032627  -0.003782   0.011806   0.689659   0.002375
    11  H   -0.000171   0.002449   0.108031   0.002375   0.600275
 Mulliken charges:
               1
     1  C    0.461876
     2  C   -1.478113
     3  C   -0.031859
     4  C    0.055086
     5  C   -1.681284
     6  C    0.540609
     7  Cl   0.273942
     8  Cl   0.290782
     9  Cl   0.276817
    10  H    0.156914
    11  H    0.135229
 Sum of Mulliken charges =  -1.00000
 Mulliken charges with hydrogens summed into heavy atoms:
               1
     1  C    0.461876
     2  C   -1.342884
     3  C   -0.031859
     4  C    0.055086
     5  C   -1.524370
     6  C    0.540609
     7  Cl   0.273942
     8  Cl   0.290782
     9  Cl   0.276817
 Electronic spatial extent (au):  <R**2>=           2202.2784
 Charge=             -1.0000 electrons
 Dipole moment (field-independent basis, Debye):
    X=              0.4127    Y=              5.2103    Z=             -0.0000  Tot=              5.2266
 Quadrupole moment (field-independent basis, Debye-Ang):
   XX=            -89.8079   YY=           -103.9999   ZZ=            -78.8197
   XY=             -9.1046   XZ=             -0.0000   YZ=              0.0000
 Traceless Quadrupole moment (field-independent basis, Debye-Ang):
   XX=              1.0680   YY=            -13.1240   ZZ=             12.0561
   XY=             -9.1046   XZ=             -0.0000   YZ=              0.0000
 Octapole moment (field-independent basis, Debye-Ang**2):
  XXX=              7.1897  YYY=             72.0427  ZZZ=             -0.0000  XYY=             12.8764
  XXY=             16.3842  XXZ=             -0.0000  XZZ=              0.4417  YZZ=              8.7946
  YYZ=             -0.0000  XYZ=              0.0000
 Hexadecapole moment (field-independent basis, Debye-Ang**3):
 XXXX=          -1621.8645 YYYY=          -1593.1914 ZZZZ=            -99.9352 XXXY=           -378.0307
 XXXZ=              0.0000 YYYX=           -354.2842 YYYZ=              0.0000 ZZZX=              0.0000
 ZZZY=              0.0000 XXYY=           -516.3087 XXZZ=           -280.6989 YYZZ=           -262.1214
 XXYZ=              0.0000 YYXZ=              0.0000 ZZXY=           -110.0543
 N-N= 6.068684110079D+02 E-N=-5.043445460120D+03  KE= 1.606530534586D+03
 Symmetry A'   KE= 1.462540657221D+03
 Symmetry A"   KE= 1.439898773655D+02
 Calling FoFJK, ICntrl=      2127 FMM=F ISym2X=1 I1Cent= 0 IOpClX= 0 NMat=1 NMatS=1 NMatT=0.
 ***** Axes restored to original set *****
 -------------------------------------------------------------------
 Center     Atomic                   Forces (Hartrees/Bohr)
 Number     Number              X              Y              Z
 -------------------------------------------------------------------
      1        6           0.006412100   -0.009616114   -0.000000000
      2        6           0.008423553    0.007856936    0.000000000
      3        6          -0.045433721   -0.038665074   -0.000000000
      4        6           0.029858635   -0.002871250    0.000000000
      5        6          -0.001254507    0.026796356    0.000000000
      6        6           0.006244126    0.005326372    0.000000000
      7       17          -0.004351297    0.000830405   -0.000000000
      8       17           0.002603907   -0.000886704    0.000000000
      9       17           0.007813922    0.011444707    0.000000000
     10        1          -0.005480992   -0.003567537   -0.000000000
     11        1          -0.004835725    0.003351905    0.000000000
 -------------------------------------------------------------------
 Cartesian Forces:  Max     0.045433721 RMS     0.013267481

 GradGradGradGradGradGradGradGradGradGradGradGradGradGradGradGradGradGrad
 Berny optimization.
 FormGI is forming the generalized inverse of G from B-inverse, IUseBI=4.
 Internal  Forces:  Max     0.029268301 RMS     0.008247456
 Search for a local minimum.
 Step number   1 out of a maximum of   57
 All quantities printed in internal units (Hartrees-Bohrs-Radians)
 Mixed Optimization -- RFO/linear search
 Second derivative matrix not updated -- first step.
 ITU=  0
     Eigenvalues ---    0.02028   0.02046   0.02048   0.02090   0.02092
     Eigenvalues ---    0.02098   0.02113   0.02125   0.16000   0.16000
     Eigenvalues ---    0.22928   0.23915   0.25000   0.25000   0.25000
     Eigenvalues ---    0.25000   0.29692   0.29695   0.30292   0.35654
     Eigenvalues ---    0.35746   0.41710   0.42186   0.45079   0.45659
     Eigenvalues ---    0.45795   0.46113
 RFO step:  Lambda=-1.14189862D-02 EMin= 2.02837061D-02
 Linear search not attempted -- first point.
 Iteration  1 RMS(Cart)=  0.03715143 RMS(Int)=  0.00120336
 Iteration  2 RMS(Cart)=  0.00154216 RMS(Int)=  0.00025444
 Iteration  3 RMS(Cart)=  0.00000048 RMS(Int)=  0.00025444
 ClnCor:  largest displacement from symmetrization is 5.11D-09 for atom     5.
 Variable       Old X    -DE/DX   Delta X   Delta X   Delta X     New X
                                 (Linear)    (Quad)   (Total)
    R1        2.64716  -0.01429   0.00000  -0.03100  -0.03121   2.61595
    R2        2.65826  -0.01631   0.00000  -0.03638  -0.03678   2.62148
    R3        3.32281  -0.00268   0.00000  -0.00871  -0.00871   3.31411
    R4        2.64375  -0.00592   0.00000  -0.01232  -0.01211   2.63163
    R5        2.04626   0.00332   0.00000   0.00904   0.00904   2.05530
    R6        2.63874  -0.01028   0.00000  -0.02106  -0.02065   2.61808
    R7        3.31085   0.01243   0.00000   0.03956   0.03956   3.35041
    R8        2.63945   0.00124   0.00000   0.00298   0.00317   2.64262
    R9        2.64661  -0.00311   0.00000  -0.00695  -0.00714   2.63946
   R10        2.04480   0.00351   0.00000   0.00953   0.00953   2.05433
   R11        3.32276   0.00329   0.00000   0.01068   0.01068   3.33344
    A1        2.09027  -0.00160   0.00000  -0.00849  -0.00916   2.08112
    A2        2.07637  -0.00021   0.00000   0.00039   0.00073   2.07709
    A3        2.11654   0.00181   0.00000   0.00810   0.00843   2.12498
    A4        2.09751  -0.00680   0.00000  -0.03011  -0.03017   2.06734
    A5        2.09395  -0.00156   0.00000  -0.01388  -0.01385   2.08011
    A6        2.09172   0.00836   0.00000   0.04399   0.04402   2.13574
    A7        2.09418   0.02391   0.00000   0.09263   0.09317   2.18735
    A8        2.10049  -0.02206   0.00000  -0.08498  -0.08525   2.01523
    A9        2.08852  -0.00184   0.00000  -0.00765  -0.00792   2.08060
   A10        2.09653  -0.02927   0.00000  -0.11001  -0.10912   1.98741
   A11        2.09825   0.01209   0.00000   0.05181   0.05177   2.15002
   A12        2.08384  -0.00040   0.00000   0.00703   0.00705   2.09089
   A13        2.10109  -0.01169   0.00000  -0.05884  -0.05882   2.04227
   A14        2.08962   0.00167   0.00000   0.00417   0.00351   2.09314
   A15        2.11687  -0.00577   0.00000  -0.02097  -0.02064   2.09623
   A16        2.07669   0.00410   0.00000   0.01680   0.01713   2.09382
    D1       -0.00000  -0.00000   0.00000   0.00000   0.00000   0.00000
    D2        3.14159  -0.00000   0.00000   0.00000   0.00000   3.14159
    D3        3.14159  -0.00000   0.00000   0.00000   0.00000   3.14159
    D4        0.00000  -0.00000   0.00000  -0.00000  -0.00000   0.00000
    D5       -0.00000  -0.00000   0.00000  -0.00000   0.00000   0.00000
    D6        3.14159  -0.00000   0.00000  -0.00000   0.00000   3.14159
    D7        3.14159   0.00000   0.00000   0.00000   0.00000   3.14159
    D8        0.00000   0.00000   0.00000   0.00000  -0.00000   0.00000
    D9        0.00000  -0.00000   0.00000  -0.00000   0.00000   0.00000
   D10        3.14159  -0.00000   0.00000  -0.00000   0.00000   3.14159
   D11        3.14159   0.00000   0.00000  -0.00000   0.00000   3.14159
   D12       -0.00000   0.00000   0.00000  -0.00000   0.00000   0.00000
   D13        0.00000   0.00000   0.00000   0.00000  -0.00000   0.00000
   D14        3.14159   0.00000   0.00000  -0.00000   0.00000   3.14159
   D15       -0.00000   0.00000   0.00000   0.00000   0.00000   0.00000
   D16        3.14159   0.00000   0.00000   0.00000   0.00000   3.14159
   D17        0.00000  -0.00000   0.00000  -0.00000   0.00000   0.00000
   D18        3.14159   0.00000   0.00000  -0.00000   0.00000   3.14159
   D19        3.14159   0.00000   0.00000  -0.00000   0.00000   3.14159
   D20       -0.00000  -0.00000   0.00000  -0.00000   0.00000   0.00000
         Item               Value     Threshold  Converged?
 Maximum Force            0.029268     0.000450     NO 
 RMS     Force            0.008247     0.000300     NO 
 Maximum Displacement     0.109916     0.001800     NO 
 RMS     Displacement     0.037485     0.001200     NO 
 Predicted change in Energy=-5.951838D-03
 GradGradGradGradGradGradGradGradGradGradGradGradGradGradGradGradGradGrad

                          Input orientation:                          
 ---------------------------------------------------------------------
 Center     Atomic      Atomic             Coordinates (Angstroms)
 Number     Number       Type             X           Y           Z
 ---------------------------------------------------------------------
      1          6           0       -1.203408    1.086671    0.000000
      2          6           0        0.001214    1.768712    0.000000
      3          6           0        1.181790    1.030079    0.000000
      4          6           0        1.261389   -0.353063   -0.000000
      5          6           0        0.017213   -0.991491   -0.000000
      6          6           0       -1.196657   -0.300540   -0.000000
      7         17           0       -2.718369   -1.192743   -0.000000
      8         17           0       -2.699152    2.002307    0.000000
      9         17           0        2.677036    1.982778    0.000000
     10          1           0       -0.032773   -2.077444   -0.000000
     11          1           0       -0.005176    2.856311    0.000000
 ---------------------------------------------------------------------
                    Distance matrix (angstroms):
                    1          2          3          4          5
     1  C    0.000000
     2  C    1.384303   0.000000
     3  C    2.385869   1.392601   0.000000
     4  C    2.854481   2.467786   1.385430   0.000000
     5  C    2.410119   2.760249   2.333020   1.398415   0.000000
     6  C    1.387227   2.390962   2.725354   2.458608   1.396744
     7  Cl   2.736939   4.020740   4.489117   4.067375   2.742975
     8  Cl   1.753750   2.710451   4.000867   4.607999   4.042458
     9  Cl   3.982568   2.684370   1.772962   2.731338   3.990104
    10  H    3.373724   3.846306   3.336445   2.156003   1.087103
    11  H    2.137144   1.087618   2.178076   3.450257   3.847867
                    6          7          8          9         10
     6  C    0.000000
     7  Cl   1.763982   0.000000
     8  Cl   2.749653   3.195108   0.000000
     9  Cl   4.496558   6.260537   5.376223   0.000000
    10  H    2.124150   2.827564   4.873802   4.881441   0.000000
    11  H    3.374216   4.874039   2.826098   2.820873   4.933833
                   11
    11  H    0.000000
 Stoichiometry    C6H2Cl3(1-)
 Framework group  CS[SG(C6H2Cl3)]
 Deg. of freedom    19
 Full point group                 CS      NOp   2
 Largest Abelian subgroup         CS      NOp   2
 Largest concise Abelian subgroup C1      NOp   1
                         Standard orientation:                         
 ---------------------------------------------------------------------
 Center     Atomic      Atomic             Coordinates (Angstroms)
 Number     Number       Type             X           Y           Z
 ---------------------------------------------------------------------
      1          6           0        0.000000    0.788831    0.000000
      2          6           0       -1.192049    0.085046    0.000000
      3          6           0       -1.140828   -1.306612    0.000000
      4          6           0        0.018209   -2.065591    0.000000
      5          6           0        1.192192   -1.305769    0.000000
      6          6           0        1.198905    0.090959    0.000000
      7         17           0        2.731281    0.964718    0.000000
      8         17           0       -0.047402    2.541940    0.000000
      9         17           0       -2.712433   -2.127255    0.000000
     10          1           0        2.158306   -1.804184    0.000000
     11          1           0       -2.131466    0.633143    0.000000
 ---------------------------------------------------------------------
 Rotational constants (GHZ):           1.8604609           0.5994903           0.4533944
 Standard basis: 6-311++G(d,p) (5D, 7F)
 There are   183 symmetry adapted cartesian basis functions of A'  symmetry.
 There are    62 symmetry adapted cartesian basis functions of A"  symmetry.
 There are   174 symmetry adapted basis functions of A'  symmetry.
 There are    62 symmetry adapted basis functions of A"  symmetry.
   236 basis functions,   393 primitive gaussians,   245 cartesian basis functions
    45 alpha electrons       45 beta electrons
       nuclear repulsion energy       610.3251364228 Hartrees.
 NAtoms=   11 NActive=   11 NUniq=   11 SFac= 1.00D+00 NAtFMM=   60 NAOKFM=F Big=F
 Integral buffers will be    131072 words long.
 Raffenetti 2 integral format.
 Two-electron integral symmetry is turned on.
 One-electron integrals computed using PRISM.
 NBasis=   236 RedAO= T EigKep=  1.31D-06  NBF=   174    62
 NBsUse=   236 1.00D-06 EigRej= -1.00D+00 NBFU=   174    62
 Initial guess from the checkpoint file:  "frequency_chks/1245tetrachlorobenzene_anion_product_Freq.chk"
 B after Tr=     0.000000   -0.000000    0.000000
         Rot=    1.000000    0.000000   -0.000000   -0.000630 Ang=  -0.07 deg.
 Initial guess orbital symmetries:
       Occupied  (A') (A') (A') (A') (A') (A') (A') (A') (A') (A')
                 (A') (A') (A') (A") (A') (A') (A") (A') (A') (A")
                 (A') (A') (A') (A') (A') (A') (A') (A') (A') (A')
                 (A') (A') (A') (A") (A') (A") (A') (A") (A') (A')
                 (A") (A') (A") (A") (A')
       Virtual   (A') (A') (A') (A') (A") (A') (A") (A') (A") (A')
                 (A") (A') (A') (A") (A') (A') (A') (A') (A") (A")
                 (A') (A') (A') (A") (A') (A') (A") (A") (A') (A')
                 (A") (A') (A') (A') (A') (A") (A') (A') (A') (A')
                 (A') (A') (A') (A') (A') (A') (A') (A') (A') (A')
                 (A') (A") (A') (A') (A") (A') (A") (A') (A') (A')
                 (A') (A") (A') (A") (A") (A') (A") (A") (A') (A')
                 (A') (A') (A") (A') (A') (A') (A') (A") (A') (A')
                 (A') (A') (A") (A') (A") (A") (A') (A") (A') (A')
                 (A") (A') (A') (A') (A') (A') (A') (A") (A') (A')
                 (A") (A') (A") (A') (A') (A') (A') (A") (A') (A")
                 (A") (A') (A') (A') (A') (A") (A') (A") (A') (A')
                 (A') (A") (A') (A") (A") (A') (A') (A") (A') (A')
                 (A") (A') (A') (A") (A') (A") (A") (A") (A') (A')
                 (A') (A') (A') (A') (A') (A') (A') (A') (A") (A')
                 (A') (A') (A") (A") (A") (A") (A') (A") (A') (A')
                 (A') (A') (A') (A') (A') (A') (A') (A') (A') (A')
                 (A') (A') (A') (A') (A') (A') (A') (A') (A') (A")
                 (A") (A") (A') (A') (A') (A') (A') (A') (A') (A')
                 (A')
 ExpMin= 3.60D-02 ExpMax= 1.06D+05 ExpMxC= 3.62D+03 IAcc=3 IRadAn=         5 AccDes= 0.00D+00
 Harris functional with IExCor= 1009 and IRadAn=       5 diagonalized for initial guess.
 HarFok:  IExCor= 1009 AccDes= 0.00D+00 IRadAn=         5 IDoV= 1 UseB2=F ITyADJ=14
 ICtDFT=  3500011 ScaDFX=  1.000000  1.000000  1.000000  1.000000
 FoFCou: FMM=F IPFlag=           0 FMFlag=      100000 FMFlg1=           0
         NFxFlg=           0 DoJE=T BraDBF=F KetDBF=T FulRan=T
         wScrn=  0.000000 ICntrl=       500 IOpCl=  0 I1Cent=   200000004 NGrid=           0
         NMat0=    1 NMatS0=      1 NMatT0=    0 NMatD0=    1 NMtDS0=    0 NMtDT0=    0
 Petite list used in FoFCou.
 Keep R1 ints in memory in symmetry-blocked form, NReq=596869867.
 Requested convergence on RMS density matrix=1.00D-08 within 128 cycles.
 Requested convergence on MAX density matrix=1.00D-06.
 Requested convergence on             energy=1.00D-06.
 No special actions if energy rises.
 SCF Done:  E(RM062X) =  -1610.39151397     A.U. after   21 cycles
            NFock= 21  Conv=0.73D-08     -V/T= 2.0023
 Calling FoFJK, ICntrl=      2127 FMM=F ISym2X=1 I1Cent= 0 IOpClX= 0 NMat=1 NMatS=1 NMatT=0.
 ***** Axes restored to original set *****
 -------------------------------------------------------------------
 Center     Atomic                   Forces (Hartrees/Bohr)
 Number     Number              X              Y              Z
 -------------------------------------------------------------------
      1        6          -0.003224119   -0.000879156   -0.000000000
      2        6           0.005769757    0.009694857    0.000000000
      3        6          -0.017538834   -0.013391113   -0.000000000
      4        6           0.011972203   -0.000396439    0.000000000
      5        6          -0.004257541    0.004229884    0.000000000
      6        6           0.000202906   -0.004136690   -0.000000000
      7       17          -0.000063253   -0.000917880   -0.000000000
      8       17          -0.000056758    0.000902988    0.000000000
      9       17           0.009200897    0.008099649    0.000000000
     10        1          -0.002118665   -0.001380376   -0.000000000
     11        1           0.000113407   -0.001825724   -0.000000000
 -------------------------------------------------------------------
 Cartesian Forces:  Max     0.017538834 RMS     0.005459797

 GradGradGradGradGradGradGradGradGradGradGradGradGradGradGradGradGradGrad
 Berny optimization.
 Using GEDIIS/GDIIS optimizer.
 FormGI is forming the generalized inverse of G from B-inverse, IUseBI=4.
 Internal  Forces:  Max     0.012111586 RMS     0.002835012
 Search for a local minimum.
 Step number   2 out of a maximum of   57
 All quantities printed in internal units (Hartrees-Bohrs-Radians)
 Mixed Optimization -- RFO/linear search
 Update second derivatives using D2CorX and points    1    2
 DE= -7.09D-03 DEPred=-5.95D-03 R= 1.19D+00
 TightC=F SS=  1.41D+00  RLast= 2.07D-01 DXNew= 5.0454D-01 6.2154D-01
 Trust test= 1.19D+00 RLast= 2.07D-01 DXMaxT set to 5.05D-01
 ITU=  1  0
 Use linear search instead of GDIIS.
     Eigenvalues ---    0.02029   0.02047   0.02048   0.02090   0.02093
     Eigenvalues ---    0.02099   0.02114   0.02123   0.14961   0.16137
     Eigenvalues ---    0.18084   0.22964   0.24457   0.25000   0.25000
     Eigenvalues ---    0.25331   0.29626   0.29696   0.30663   0.35714
     Eigenvalues ---    0.35823   0.41394   0.42820   0.45134   0.45554
     Eigenvalues ---    0.45954   0.50936
 RFO step:  Lambda=-1.13255625D-03 EMin= 2.02879161D-02
 Quartic linear search produced a step of  0.28364.
 Iteration  1 RMS(Cart)=  0.01630116 RMS(Int)=  0.00024906
 Iteration  2 RMS(Cart)=  0.00032656 RMS(Int)=  0.00011907
 Iteration  3 RMS(Cart)=  0.00000004 RMS(Int)=  0.00011907
 ClnCor:  largest displacement from symmetrization is 3.44D-09 for atom     8.
 Variable       Old X    -DE/DX   Delta X   Delta X   Delta X     New X
                                 (Linear)    (Quad)   (Total)
    R1        2.61595   0.00364  -0.00885   0.01660   0.00767   2.62363
    R2        2.62148   0.00276  -0.01043   0.01531   0.00469   2.62617
    R3        3.31411   0.00052  -0.00247   0.00403   0.00156   3.31566
    R4        2.63163  -0.00003  -0.00344   0.00241  -0.00091   2.63072
    R5        2.05530  -0.00183   0.00256  -0.00838  -0.00581   2.04949
    R6        2.61808   0.00014  -0.00586   0.00439  -0.00128   2.61680
    R7        3.35041   0.01211   0.01122   0.04301   0.05423   3.40464
    R8        2.64262   0.00588   0.00090   0.01548   0.01645   2.65907
    R9        2.63946  -0.00070  -0.00203  -0.00065  -0.00278   2.63668
   R10        2.05433   0.00148   0.00270   0.00336   0.00607   2.06039
   R11        3.33344   0.00052   0.00303   0.00004   0.00307   3.33651
    A1        2.08112  -0.00113  -0.00260  -0.00324  -0.00613   2.07498
    A2        2.07709  -0.00067   0.00021  -0.00387  -0.00352   2.07358
    A3        2.12498   0.00180   0.00239   0.00711   0.00965   2.13463
    A4        2.06734  -0.00211  -0.00856  -0.00524  -0.01380   2.05354
    A5        2.08011   0.00116  -0.00393   0.00995   0.00602   2.08613
    A6        2.13574   0.00095   0.01249  -0.00471   0.00777   2.14352
    A7        2.18735   0.00653   0.02643   0.01373   0.04042   2.22777
    A8        2.01523  -0.00642  -0.02418  -0.01489  -0.03920   1.97603
    A9        2.08060  -0.00011  -0.00225   0.00116  -0.00122   2.07938
   A10        1.98741  -0.00666  -0.03095  -0.01237  -0.04292   1.94449
   A11        2.15002   0.00337   0.01468   0.00786   0.02250   2.17252
   A12        2.09089   0.00043   0.00200   0.00553   0.00755   2.09844
   A13        2.04227  -0.00380  -0.01668  -0.01338  -0.03005   2.01223
   A14        2.09314  -0.00001   0.00100  -0.00074  -0.00006   2.09307
   A15        2.09623   0.00127  -0.00586   0.01076   0.00507   2.10129
   A16        2.09382  -0.00126   0.00486  -0.01002  -0.00500   2.08882
    D1        0.00000  -0.00000   0.00000  -0.00000  -0.00000   0.00000
    D2        3.14159   0.00000   0.00000  -0.00000   0.00000   3.14159
    D3        3.14159  -0.00000   0.00000  -0.00000   0.00000   3.14159
    D4        0.00000  -0.00000   0.00000  -0.00000   0.00000   0.00000
    D5       -0.00000   0.00000   0.00000   0.00000   0.00000   0.00000
    D6        3.14159   0.00000   0.00000   0.00000   0.00000   3.14159
    D7        3.14159   0.00000   0.00000   0.00000   0.00000   3.14159
    D8       -0.00000   0.00000   0.00000   0.00000   0.00000   0.00000
    D9       -0.00000   0.00000   0.00000   0.00000   0.00000   0.00000
   D10        3.14159   0.00000   0.00000   0.00000   0.00000   3.14159
   D11        3.14159  -0.00000   0.00000  -0.00000   0.00000   3.14159
   D12       -0.00000   0.00000   0.00000   0.00000   0.00000   0.00000
   D13        0.00000   0.00000   0.00000   0.00000   0.00000   0.00000
   D14        3.14159  -0.00000   0.00000   0.00000   0.00000   3.14159
   D15       -0.00000  -0.00000   0.00000  -0.00000   0.00000   0.00000
   D16        3.14159  -0.00000   0.00000  -0.00000   0.00000   3.14159
   D17        0.00000   0.00000   0.00000  -0.00000   0.00000   0.00000
   D18        3.14159   0.00000   0.00000   0.00000   0.00000   3.14159
   D19        3.14159  -0.00000   0.00000  -0.00000   0.00000   3.14159
   D20       -0.00000   0.00000   0.00000  -0.00000   0.00000   0.00000
         Item               Value     Threshold  Converged?
 Maximum Force            0.012112     0.000450     NO 
 RMS     Force            0.002835     0.000300     NO 
 Maximum Displacement     0.058092     0.001800     NO 
 RMS     Displacement     0.016403     0.001200     NO 
 Predicted change in Energy=-9.806166D-04
 GradGradGradGradGradGradGradGradGradGradGradGradGradGradGradGradGradGrad

                          Input orientation:                          
 ---------------------------------------------------------------------
 Center     Atomic      Atomic             Coordinates (Angstroms)
 Number     Number       Type             X           Y           Z
 ---------------------------------------------------------------------
      1          6           0       -1.206671    1.088542    0.000000
      2          6           0        0.003401    1.769186    0.000000
      3          6           0        1.171143    1.011316    0.000000
      4          6           0        1.283602   -0.368862   -0.000000
      5          6           0        0.019637   -0.987227   -0.000000
      6          6           0       -1.195287   -0.301119   -0.000000
      7         17           0       -2.710852   -1.206896   -0.000000
      8         17           0       -2.697291    2.014058    0.000000
      9         17           0        2.668329    2.013519    0.000000
     10          1           0       -0.059510   -2.074663   -0.000000
     11          1           0        0.006606    2.853724    0.000000
 ---------------------------------------------------------------------
                    Distance matrix (angstroms):
                    1          2          3          4          5
     1  C    0.000000
     2  C    1.388363   0.000000
     3  C    2.379069   1.392117   0.000000
     4  C    2.885392   2.492020   1.384752   0.000000
     5  C    2.410943   2.756461   2.306543   1.407119   0.000000
     6  C    1.389707   2.392282   2.706007   2.479815   1.395272
     7  Cl   2.744375   4.027931   4.471057   4.081417   2.739311
     8  Cl   1.754573   2.711771   3.996283   4.639593   4.048383
     9  Cl   3.983869   2.676106   1.801659   2.755578   4.002505
    10  H    3.364795   3.844364   3.322315   2.171108   1.090313
    11  H    2.141940   1.084542   2.179591   3.466378   3.840973
                    6          7          8          9         10
     6  C    0.000000
     7  Cl   1.765607   0.000000
     8  Cl   2.759721   3.220982   0.000000
     9  Cl   4.503896   6.269502   5.365621   0.000000
    10  H    2.106051   2.789738   4.865751   4.914707   0.000000
    11  H    3.376029   4.886021   2.831271   2.791186   4.928830
                   11
    11  H    0.000000
 Stoichiometry    C6H2Cl3(1-)
 Framework group  CS[SG(C6H2Cl3)]
 Deg. of freedom    19
 Full point group                 CS      NOp   2
 Largest Abelian subgroup         CS      NOp   2
 Largest concise Abelian subgroup C1      NOp   1
                         Standard orientation:                         
 ---------------------------------------------------------------------
 Center     Atomic      Atomic             Coordinates (Angstroms)
 Number     Number       Type             X           Y           Z
 ---------------------------------------------------------------------
      1          6           0        0.000000    0.791659    0.000000
      2          6           0       -1.190417    0.077194    0.000000
      3          6           0       -1.109987   -1.312598    0.000000
      4          6           0        0.033546   -2.093539    0.000000
      5          6           0        1.196528   -1.301418    0.000000
      6          6           0        1.201807    0.093845    0.000000
      7         17           0        2.739064    0.962297    0.000000
      8         17           0       -0.066259    2.544980    0.000000
      9         17           0       -2.721929   -2.117347    0.000000
     10          1           0        2.180556   -1.770962    0.000000
     11          1           0       -2.134332    0.611287    0.000000
 ---------------------------------------------------------------------
 Rotational constants (GHZ):           1.8348302           0.6000079           0.4521503
 Standard basis: 6-311++G(d,p) (5D, 7F)
 There are   183 symmetry adapted cartesian basis functions of A'  symmetry.
 There are    62 symmetry adapted cartesian basis functions of A"  symmetry.
 There are   174 symmetry adapted basis functions of A'  symmetry.
 There are    62 symmetry adapted basis functions of A"  symmetry.
   236 basis functions,   393 primitive gaussians,   245 cartesian basis functions
    45 alpha electrons       45 beta electrons
       nuclear repulsion energy       608.9354137437 Hartrees.
 NAtoms=   11 NActive=   11 NUniq=   11 SFac= 1.00D+00 NAtFMM=   60 NAOKFM=F Big=F
 Integral buffers will be    131072 words long.
 Raffenetti 2 integral format.
 Two-electron integral symmetry is turned on.
 One-electron integrals computed using PRISM.
 NBasis=   236 RedAO= T EigKep=  1.37D-06  NBF=   174    62
 NBsUse=   236 1.00D-06 EigRej= -1.00D+00 NBFU=   174    62
 Initial guess from the checkpoint file:  "frequency_chks/1245tetrachlorobenzene_anion_product_Freq.chk"
 B after Tr=    -0.000000   -0.000000    0.000000
         Rot=    1.000000   -0.000000   -0.000000   -0.000491 Ang=  -0.06 deg.
 Initial guess orbital symmetries:
       Occupied  (A') (A') (A') (A') (A') (A') (A') (A') (A') (A')
                 (A') (A') (A') (A") (A') (A') (A") (A') (A') (A")
                 (A') (A') (A') (A') (A') (A') (A') (A') (A') (A')
                 (A') (A') (A') (A") (A') (A") (A") (A') (A') (A')
                 (A") (A') (A") (A") (A')
       Virtual   (A') (A') (A') (A') (A") (A') (A") (A') (A") (A')
                 (A") (A') (A') (A") (A') (A') (A') (A') (A") (A")
                 (A') (A') (A') (A") (A') (A") (A') (A") (A') (A')
                 (A") (A') (A') (A') (A') (A") (A') (A') (A') (A')
                 (A') (A') (A') (A') (A') (A') (A') (A') (A') (A')
                 (A') (A") (A') (A') (A") (A') (A") (A') (A') (A')
                 (A') (A") (A') (A") (A") (A') (A") (A") (A') (A')
                 (A') (A') (A") (A') (A') (A') (A") (A') (A') (A')
                 (A') (A') (A') (A") (A") (A") (A') (A") (A') (A')
                 (A") (A') (A') (A') (A') (A') (A') (A") (A') (A')
                 (A") (A') (A") (A') (A') (A') (A') (A") (A') (A")
                 (A") (A') (A') (A') (A') (A") (A') (A") (A') (A')
                 (A') (A") (A') (A") (A") (A') (A') (A") (A') (A')
                 (A") (A') (A") (A') (A') (A") (A") (A") (A') (A')
                 (A') (A') (A') (A') (A') (A') (A') (A') (A") (A')
                 (A') (A') (A") (A") (A") (A") (A') (A") (A') (A')
                 (A') (A') (A') (A') (A') (A') (A') (A') (A') (A')
                 (A') (A') (A') (A') (A') (A') (A') (A') (A') (A")
                 (A") (A") (A') (A') (A') (A') (A') (A') (A') (A')
                 (A')
 ExpMin= 3.60D-02 ExpMax= 1.06D+05 ExpMxC= 3.62D+03 IAcc=3 IRadAn=         5 AccDes= 0.00D+00
 Harris functional with IExCor= 1009 and IRadAn=       5 diagonalized for initial guess.
 HarFok:  IExCor= 1009 AccDes= 0.00D+00 IRadAn=         5 IDoV= 1 UseB2=F ITyADJ=14
 ICtDFT=  3500011 ScaDFX=  1.000000  1.000000  1.000000  1.000000
 FoFCou: FMM=F IPFlag=           0 FMFlag=      100000 FMFlg1=           0
         NFxFlg=           0 DoJE=T BraDBF=F KetDBF=T FulRan=T
         wScrn=  0.000000 ICntrl=       500 IOpCl=  0 I1Cent=   200000004 NGrid=           0
         NMat0=    1 NMatS0=      1 NMatT0=    0 NMatD0=    1 NMtDS0=    0 NMtDT0=    0
 Petite list used in FoFCou.
 Keep R1 ints in memory in symmetry-blocked form, NReq=596869867.
 Requested convergence on RMS density matrix=1.00D-08 within 128 cycles.
 Requested convergence on MAX density matrix=1.00D-06.
 Requested convergence on             energy=1.00D-06.
 No special actions if energy rises.
 SCF Done:  E(RM062X) =  -1610.39259103     A.U. after   17 cycles
            NFock= 17  Conv=0.55D-08     -V/T= 2.0023
 Calling FoFJK, ICntrl=      2127 FMM=F ISym2X=1 I1Cent= 0 IOpClX= 0 NMat=1 NMatS=1 NMatT=0.
 ***** Axes restored to original set *****
 -------------------------------------------------------------------
 Center     Atomic                   Forces (Hartrees/Bohr)
 Number     Number              X              Y              Z
 -------------------------------------------------------------------
      1        6          -0.000521526    0.000366402    0.000000000
      2        6           0.000074786    0.001238324    0.000000000
      3        6          -0.004991076   -0.004546218   -0.000000000
      4        6           0.000866310    0.002277629    0.000000000
      5        6          -0.001416238   -0.001472275   -0.000000000
      6        6          -0.000365456   -0.000337559   -0.000000000
      7       17           0.000740639    0.000640693    0.000000000
      8       17           0.000001220   -0.000522156   -0.000000000
      9       17           0.004720401    0.002832723    0.000000000
     10        1           0.000430901    0.000161290    0.000000000
     11        1           0.000460039   -0.000638854   -0.000000000
 -------------------------------------------------------------------
 Cartesian Forces:  Max     0.004991076 RMS     0.001653763

 GradGradGradGradGradGradGradGradGradGradGradGradGradGradGradGradGradGrad
 Berny optimization.
 Using GEDIIS/GDIIS optimizer.
 FormGI is forming the generalized inverse of G from B-inverse, IUseBI=4.
 Internal  Forces:  Max     0.005498313 RMS     0.000916760
 Search for a local minimum.
 Step number   3 out of a maximum of   57
 All quantities printed in internal units (Hartrees-Bohrs-Radians)
 Mixed Optimization -- En-DIIS/RFO-DIIS
 Update second derivatives using D2CorX and points    1    2    3
 DE= -1.08D-03 DEPred=-9.81D-04 R= 1.10D+00
 TightC=F SS=  1.41D+00  RLast= 1.02D-01 DXNew= 8.4853D-01 3.0515D-01
 Trust test= 1.10D+00 RLast= 1.02D-01 DXMaxT set to 5.05D-01
 ITU=  1  1  0
 Use linear search instead of GDIIS.
     Eigenvalues ---    0.02029   0.02047   0.02048   0.02090   0.02093
     Eigenvalues ---    0.02099   0.02114   0.02123   0.14304   0.16231
     Eigenvalues ---    0.16560   0.23112   0.24425   0.25000   0.25074
     Eigenvalues ---    0.25619   0.29580   0.29777   0.31583   0.35735
     Eigenvalues ---    0.35897   0.41284   0.43160   0.45122   0.45468
     Eigenvalues ---    0.45926   0.50715
 RFO step:  Lambda=-1.28754549D-04 EMin= 2.02863378D-02
 Quartic linear search produced a step of  0.17469.
 Iteration  1 RMS(Cart)=  0.00367774 RMS(Int)=  0.00001159
 Iteration  2 RMS(Cart)=  0.00000837 RMS(Int)=  0.00000976
 Iteration  3 RMS(Cart)=  0.00000000 RMS(Int)=  0.00000976
 ClnCor:  largest displacement from symmetrization is 3.88D-10 for atom     8.
 Variable       Old X    -DE/DX   Delta X   Delta X   Delta X     New X
                                 (Linear)    (Quad)   (Total)
    R1        2.62363   0.00061   0.00134  -0.00015   0.00119   2.62481
    R2        2.62617   0.00024   0.00082  -0.00085  -0.00005   2.62612
    R3        3.31566  -0.00028   0.00027  -0.00149  -0.00122   3.31445
    R4        2.63072   0.00006  -0.00016  -0.00021  -0.00036   2.63036
    R5        2.04949  -0.00064  -0.00102  -0.00122  -0.00223   2.04726
    R6        2.61680  -0.00149  -0.00022  -0.00432  -0.00453   2.61227
    R7        3.40464   0.00550   0.00947   0.01678   0.02625   3.43090
    R8        2.65907   0.00092   0.00287   0.00077   0.00364   2.66271
    R9        2.63668  -0.00002  -0.00049   0.00009  -0.00040   2.63628
   R10        2.06039  -0.00019   0.00106  -0.00093   0.00012   2.06052
   R11        3.33651  -0.00096   0.00054  -0.00373  -0.00320   3.33332
    A1        2.07498  -0.00007  -0.00107   0.00038  -0.00072   2.07426
    A2        2.07358   0.00077  -0.00061   0.00373   0.00313   2.07670
    A3        2.13463  -0.00070   0.00169  -0.00411  -0.00241   2.13222
    A4        2.05354  -0.00044  -0.00241  -0.00185  -0.00425   2.04929
    A5        2.08613   0.00069   0.00105   0.00361   0.00466   2.09079
    A6        2.14352  -0.00026   0.00136  -0.00177  -0.00041   2.14310
    A7        2.22777   0.00054   0.00706   0.00102   0.00811   2.23588
    A8        1.97603   0.00020  -0.00685   0.00236  -0.00450   1.97153
    A9        2.07938  -0.00073  -0.00021  -0.00338  -0.00361   2.07577
   A10        1.94449   0.00039  -0.00750   0.00267  -0.00480   1.93969
   A11        2.17252  -0.00073   0.00393  -0.00422  -0.00030   2.17222
   A12        2.09844  -0.00007   0.00132  -0.00188  -0.00056   2.09789
   A13        2.01223   0.00079  -0.00525   0.00610   0.00085   2.01308
   A14        2.09307   0.00030  -0.00001   0.00200   0.00196   2.09503
   A15        2.10129  -0.00044   0.00089  -0.00336  -0.00246   2.09883
   A16        2.08882   0.00013  -0.00087   0.00137   0.00051   2.08933
    D1        0.00000   0.00000   0.00000   0.00000   0.00000   0.00000
    D2        3.14159  -0.00000   0.00000  -0.00000   0.00000   3.14159
    D3        3.14159   0.00000   0.00000   0.00000   0.00000   3.14159
    D4        0.00000   0.00000   0.00000   0.00000  -0.00000   0.00000
    D5       -0.00000  -0.00000   0.00000  -0.00000   0.00000   0.00000
    D6        3.14159   0.00000   0.00000   0.00000   0.00000   3.14159
    D7        3.14159  -0.00000   0.00000  -0.00000   0.00000   3.14159
    D8        0.00000  -0.00000   0.00000  -0.00000   0.00000   0.00000
    D9       -0.00000   0.00000   0.00000  -0.00000   0.00000   0.00000
   D10        3.14159  -0.00000   0.00000  -0.00000   0.00000   3.14159
   D11        3.14159   0.00000   0.00000   0.00000   0.00000   3.14159
   D12       -0.00000  -0.00000   0.00000  -0.00000   0.00000   0.00000
   D13       -0.00000  -0.00000   0.00000   0.00000   0.00000   0.00000
   D14        3.14159   0.00000   0.00000   0.00000   0.00000   3.14159
   D15        0.00000  -0.00000   0.00000   0.00000   0.00000   0.00000
   D16        3.14159  -0.00000   0.00000  -0.00000   0.00000   3.14159
   D17        0.00000   0.00000   0.00000  -0.00000   0.00000   0.00000
   D18        3.14159  -0.00000   0.00000  -0.00000   0.00000   3.14159
   D19        3.14159   0.00000   0.00000   0.00000   0.00000   3.14159
   D20        0.00000   0.00000   0.00000   0.00000  -0.00000   0.00000
         Item               Value     Threshold  Converged?
 Maximum Force            0.005498     0.000450     NO 
 RMS     Force            0.000917     0.000300     NO 
 Maximum Displacement     0.012962     0.001800     NO 
 RMS     Displacement     0.003676     0.001200     NO 
 Predicted change in Energy=-8.711374D-05
 GradGradGradGradGradGradGradGradGradGradGradGradGradGradGradGradGradGrad

                          Input orientation:                          
 ---------------------------------------------------------------------
 Center     Atomic      Atomic             Coordinates (Angstroms)
 Number     Number       Type             X           Y           Z
 ---------------------------------------------------------------------
      1          6           0       -1.208010    1.088960    0.000000
      2          6           0        0.002424    1.770241    0.000000
      3          6           0        1.166983    1.007835    0.000000
      4          6           0        1.284934   -0.369478   -0.000000
      5          6           0        0.018823   -0.987840   -0.000000
      6          6           0       -1.195252   -0.300662   -0.000000
      7         17           0       -2.710695   -1.203340   -0.000000
      8         17           0       -2.701219    2.009069    0.000000
      9         17           0        2.675188    2.018551    0.000000
     10          1           0       -0.060453   -2.075333   -0.000000
     11          1           0        0.010383    2.853573    0.000000
 ---------------------------------------------------------------------
                    Distance matrix (angstroms):
                    1          2          3          4          5
     1  C    0.000000
     2  C    1.388991   0.000000
     3  C    2.376378   1.391927   0.000000
     4  C    2.888220   2.494640   1.382354   0.000000
     5  C    2.412098   2.758130   2.302388   1.409046   0.000000
     6  C    1.389681   2.392294   2.700429   2.481140   1.395059
     7  Cl   2.740931   4.025320   4.463819   4.081713   2.738012
     8  Cl   1.753930   2.714171   3.995679   4.641864   4.047232
     9  Cl   3.992915   2.684274   1.815552   2.763239   4.011815
    10  H    3.365953   3.846088   3.318512   2.172558   1.090379
    11  H    2.144374   1.083361   2.178181   3.465911   3.841422
                    6          7          8          9         10
     6  C    0.000000
     7  Cl   1.763915   0.000000
     8  Cl   2.757317   3.212423   0.000000
     9  Cl   4.512101   6.276012   5.376415   0.000000
    10  H    2.106472   2.790010   4.863742   4.923781   0.000000
    11  H    3.376797   4.884957   2.840065   2.792570   4.929415
                   11
    11  H    0.000000
 Stoichiometry    C6H2Cl3(1-)
 Framework group  CS[SG(C6H2Cl3)]
 Deg. of freedom    19
 Full point group                 CS      NOp   2
 Largest Abelian subgroup         CS      NOp   2
 Largest concise Abelian subgroup C1      NOp   1
                         Standard orientation:                         
 ---------------------------------------------------------------------
 Center     Atomic      Atomic             Coordinates (Angstroms)
 Number     Number       Type             X           Y           Z
 ---------------------------------------------------------------------
      1          6           0        0.000000    0.792980    0.000000
      2          6           0       -1.190395    0.077261    0.000000
      3          6           0       -1.102985   -1.311919    0.000000
      4          6           0        0.036166   -2.095014    0.000000
      5          6           0        1.199371   -1.299800    0.000000
      6          6           0        1.201831    0.095257    0.000000
      7         17           0        2.735417    0.966755    0.000000
      8         17           0       -0.062126    2.545809    0.000000
      9         17           0       -2.726923   -2.123741    0.000000
     10          1           0        2.184006   -1.768223    0.000000
     11          1           0       -2.136174    0.605629    0.000000
 ---------------------------------------------------------------------
 Rotational constants (GHZ):           1.8387826           0.5984743           0.4515175
 Standard basis: 6-311++G(d,p) (5D, 7F)
 There are   183 symmetry adapted cartesian basis functions of A'  symmetry.
 There are    62 symmetry adapted cartesian basis functions of A"  symmetry.
 There are   174 symmetry adapted basis functions of A'  symmetry.
 There are    62 symmetry adapted basis functions of A"  symmetry.
   236 basis functions,   393 primitive gaussians,   245 cartesian basis functions
    45 alpha electrons       45 beta electrons
       nuclear repulsion energy       608.6547436482 Hartrees.
 NAtoms=   11 NActive=   11 NUniq=   11 SFac= 1.00D+00 NAtFMM=   60 NAOKFM=F Big=F
 Integral buffers will be    131072 words long.
 Raffenetti 2 integral format.
 Two-electron integral symmetry is turned on.
 One-electron integrals computed using PRISM.
 NBasis=   236 RedAO= T EigKep=  1.38D-06  NBF=   174    62
 NBsUse=   236 1.00D-06 EigRej= -1.00D+00 NBFU=   174    62
 Initial guess from the checkpoint file:  "frequency_chks/1245tetrachlorobenzene_anion_product_Freq.chk"
 B after Tr=     0.000000    0.000000   -0.000000
         Rot=    1.000000    0.000000   -0.000000   -0.000322 Ang=  -0.04 deg.
 Initial guess orbital symmetries:
       Occupied  (A') (A') (A') (A') (A') (A') (A') (A') (A') (A')
                 (A') (A') (A') (A") (A') (A') (A") (A') (A') (A")
                 (A') (A') (A') (A') (A') (A') (A') (A') (A') (A')
                 (A') (A') (A") (A') (A') (A") (A") (A') (A') (A')
                 (A") (A') (A") (A") (A')
       Virtual   (A') (A') (A') (A') (A") (A') (A") (A') (A") (A')
                 (A") (A') (A') (A") (A') (A') (A') (A') (A") (A')
                 (A") (A') (A') (A") (A') (A") (A') (A') (A") (A')
                 (A") (A') (A') (A') (A') (A") (A') (A') (A') (A')
                 (A') (A') (A') (A') (A') (A') (A') (A') (A') (A')
                 (A') (A") (A') (A') (A") (A') (A") (A') (A') (A')
                 (A') (A") (A') (A") (A") (A') (A") (A") (A') (A')
                 (A') (A') (A") (A') (A') (A') (A") (A') (A') (A')
                 (A') (A') (A') (A") (A") (A') (A") (A") (A') (A')
                 (A") (A') (A') (A') (A') (A') (A') (A") (A') (A')
                 (A") (A') (A") (A') (A') (A') (A') (A") (A') (A")
                 (A") (A') (A') (A') (A') (A") (A') (A") (A') (A')
                 (A') (A") (A') (A") (A") (A') (A') (A") (A') (A')
                 (A") (A') (A") (A') (A') (A") (A") (A") (A') (A')
                 (A') (A') (A') (A') (A') (A') (A') (A') (A") (A')
                 (A') (A") (A') (A") (A") (A") (A') (A") (A') (A')
                 (A') (A') (A') (A') (A') (A') (A') (A') (A') (A')
                 (A') (A') (A') (A') (A') (A') (A') (A') (A') (A")
                 (A") (A") (A') (A') (A') (A') (A') (A') (A') (A')
                 (A')
 Keep R1 ints in memory in symmetry-blocked form, NReq=596869867.
 Requested convergence on RMS density matrix=1.00D-08 within 128 cycles.
 Requested convergence on MAX density matrix=1.00D-06.
 Requested convergence on             energy=1.00D-06.
 No special actions if energy rises.
 SCF Done:  E(RM062X) =  -1610.39270514     A.U. after   20 cycles
            NFock= 20  Conv=0.40D-08     -V/T= 2.0024
 Calling FoFJK, ICntrl=      2127 FMM=F ISym2X=1 I1Cent= 0 IOpClX= 0 NMat=1 NMatS=1 NMatT=0.
 ***** Axes restored to original set *****
 -------------------------------------------------------------------
 Center     Atomic                   Forces (Hartrees/Bohr)
 Number     Number              X              Y              Z
 -------------------------------------------------------------------
      1        6           0.000178966    0.000782333    0.000000000
      2        6          -0.000178718   -0.000076759   -0.000000000
      3        6          -0.001295330   -0.001962595   -0.000000000
      4        6          -0.000922437    0.001684278    0.000000000
      5        6          -0.000358656   -0.001275104   -0.000000000
      6        6          -0.000058709   -0.000434351   -0.000000000
      7       17           0.000239206   -0.000020927    0.000000000
      8       17           0.000103208   -0.000054980    0.000000000
      9       17           0.001702904    0.001084653    0.000000000
     10        1           0.000369445    0.000255382    0.000000000
     11        1           0.000220122    0.000018070    0.000000000
 -------------------------------------------------------------------
 Cartesian Forces:  Max     0.001962595 RMS     0.000701601

 GradGradGradGradGradGradGradGradGradGradGradGradGradGradGradGradGradGrad
 Berny optimization.
 Using GEDIIS/GDIIS optimizer.
 FormGI is forming the generalized inverse of G from B-inverse, IUseBI=4.
 Internal  Forces:  Max     0.002018368 RMS     0.000435873
 Search for a local minimum.
 Step number   4 out of a maximum of   57
 All quantities printed in internal units (Hartrees-Bohrs-Radians)
 Mixed Optimization -- En-DIIS/RFO-DIIS
 Swapping is turned off.
 Update second derivatives using D2CorX and points    1    2    3    4
 DE= -1.14D-04 DEPred=-8.71D-05 R= 1.31D+00
 TightC=F SS=  1.41D+00  RLast= 3.05D-02 DXNew= 8.4853D-01 9.1526D-02
 Trust test= 1.31D+00 RLast= 3.05D-02 DXMaxT set to 5.05D-01
 ITU=  1  1  1  0
     Eigenvalues ---    0.02029   0.02047   0.02048   0.02090   0.02093
     Eigenvalues ---    0.02099   0.02114   0.02122   0.11732   0.16094
     Eigenvalues ---    0.16218   0.23178   0.24321   0.25002   0.25086
     Eigenvalues ---    0.25911   0.26999   0.29758   0.29850   0.35730
     Eigenvalues ---    0.35876   0.41418   0.43407   0.45310   0.45594
     Eigenvalues ---    0.45988   0.50898
 En-DIIS/RFO-DIIS/Sim-DIIS IScMMF=       -3 using points:     4    3
 RFO step:  Lambda=-4.62892153D-05.
 DidBck=F Rises=F RFO-DIIS coefs:    1.48568   -0.48568
 Iteration  1 RMS(Cart)=  0.00216911 RMS(Int)=  0.00000241
 Iteration  2 RMS(Cart)=  0.00000253 RMS(Int)=  0.00000091
 Iteration  3 RMS(Cart)=  0.00000000 RMS(Int)=  0.00000091
 ClnCor:  largest displacement from symmetrization is 6.63D-10 for atom     8.
 Variable       Old X    -DE/DX   Delta X   Delta X   Delta X     New X
                                 (Linear)    (Quad)   (Total)
    R1        2.62481   0.00001   0.00058  -0.00064  -0.00006   2.62475
    R2        2.62612   0.00091  -0.00002   0.00262   0.00260   2.62872
    R3        3.31445  -0.00012  -0.00059  -0.00021  -0.00080   3.31365
    R4        2.63036  -0.00025  -0.00017  -0.00098  -0.00115   2.62921
    R5        2.04726   0.00002  -0.00108   0.00086  -0.00023   2.04703
    R6        2.61227  -0.00117  -0.00220  -0.00241  -0.00461   2.60766
    R7        3.43090   0.00202   0.01275   0.00180   0.01455   3.44544
    R8        2.66271  -0.00009   0.00177  -0.00116   0.00060   2.66331
    R9        2.63628  -0.00009  -0.00020  -0.00015  -0.00035   2.63593
   R10        2.06052  -0.00028   0.00006  -0.00087  -0.00081   2.05971
   R11        3.33332  -0.00019  -0.00155   0.00043  -0.00112   3.33219
    A1        2.07426   0.00008  -0.00035   0.00095   0.00060   2.07486
    A2        2.07670  -0.00005   0.00152  -0.00172  -0.00020   2.07650
    A3        2.13222  -0.00003  -0.00117   0.00077  -0.00040   2.13182
    A4        2.04929  -0.00013  -0.00206  -0.00015  -0.00222   2.04707
    A5        2.09079   0.00029   0.00227   0.00070   0.00297   2.09376
    A6        2.14310  -0.00016  -0.00020  -0.00055  -0.00075   2.14235
    A7        2.23588  -0.00015   0.00394  -0.00188   0.00206   2.23794
    A8        1.97153   0.00016  -0.00218   0.00057  -0.00161   1.96992
    A9        2.07577  -0.00001  -0.00175   0.00130  -0.00045   2.07532
   A10        1.93969   0.00104  -0.00233   0.00449   0.00216   1.94185
   A11        2.17222  -0.00073  -0.00014  -0.00289  -0.00304   2.16918
   A12        2.09789   0.00001  -0.00027  -0.00051  -0.00078   2.09710
   A13        2.01308   0.00073   0.00041   0.00341   0.00382   2.01690
   A14        2.09503  -0.00011   0.00095  -0.00052   0.00043   2.09545
   A15        2.09883   0.00029  -0.00120   0.00191   0.00072   2.09955
   A16        2.08933  -0.00018   0.00025  -0.00139  -0.00115   2.08818
    D1       -0.00000  -0.00000   0.00000  -0.00000   0.00000   0.00000
    D2        3.14159  -0.00000   0.00000   0.00000   0.00000   3.14159
    D3        3.14159   0.00000   0.00000   0.00000   0.00000   3.14159
    D4       -0.00000   0.00000   0.00000   0.00000   0.00000   0.00000
    D5        0.00000   0.00000   0.00000   0.00000  -0.00000   0.00000
    D6        3.14159  -0.00000   0.00000   0.00000   0.00000   3.14159
    D7        3.14159  -0.00000   0.00000  -0.00000   0.00000   3.14159
    D8       -0.00000  -0.00000   0.00000  -0.00000   0.00000   0.00000
    D9        0.00000   0.00000   0.00000   0.00000   0.00000   0.00000
   D10        3.14159   0.00000   0.00000   0.00000   0.00000   3.14159
   D11        3.14159   0.00000   0.00000  -0.00000   0.00000   3.14159
   D12        0.00000   0.00000   0.00000   0.00000  -0.00000   0.00000
   D13        0.00000   0.00000   0.00000  -0.00000  -0.00000   0.00000
   D14        3.14159   0.00000   0.00000  -0.00000   0.00000   3.14159
   D15       -0.00000   0.00000   0.00000   0.00000   0.00000   0.00000
   D16        3.14159  -0.00000   0.00000   0.00000   0.00000   3.14159
   D17        0.00000  -0.00000   0.00000  -0.00000   0.00000   0.00000
   D18        3.14159   0.00000   0.00000  -0.00000   0.00000   3.14159
   D19        3.14159   0.00000   0.00000  -0.00000   0.00000   3.14159
   D20        0.00000   0.00000   0.00000  -0.00000   0.00000   0.00000
         Item               Value     Threshold  Converged?
 Maximum Force            0.002018     0.000450     NO 
 RMS     Force            0.000436     0.000300     NO 
 Maximum Displacement     0.007925     0.001800     NO 
 RMS     Displacement     0.002169     0.001200     NO 
 Predicted change in Energy=-2.315061D-05
 GradGradGradGradGradGradGradGradGradGradGradGradGradGradGradGradGradGrad

                          Input orientation:                          
 ---------------------------------------------------------------------
 Center     Atomic      Atomic             Coordinates (Angstroms)
 Number     Number       Type             X           Y           Z
 ---------------------------------------------------------------------
      1          6           0       -1.208357    1.089501    0.000000
      2          6           0        0.001876    1.771071    0.000000
      3          6           0        1.164427    1.006712    0.000000
      4          6           0        1.282307   -0.368160   -0.000000
      5          6           0        0.017311   -0.989527   -0.000000
      6          6           0       -1.196070   -0.301502   -0.000000
      7         17           0       -2.710668   -1.204439   -0.000000
      8         17           0       -2.701253    2.009311    0.000000
      9         17           0        2.679382    2.021183    0.000000
     10          1           0       -0.058621   -2.076831   -0.000000
     11          1           0        0.012774    2.854257    0.000000
 ---------------------------------------------------------------------
                    Distance matrix (angstroms):
                    1          2          3          4          5
     1  C    0.000000
     2  C    1.388957   0.000000
     3  C    2.374228   1.391319   0.000000
     4  C    2.885859   2.493154   1.379917   0.000000
     5  C    2.413425   2.760642   2.302357   1.409366   0.000000
     6  C    1.391057   2.393874   2.698772   2.479273   1.394874
     7  Cl   2.742097   4.026357   4.461563   4.079609   2.736432
     8  Cl   1.753508   2.713608   3.993581   4.639086   4.047669
     9  Cl   3.997818   2.689163   1.823250   2.767812   4.018831
    10  H    3.368613   3.848378   3.317241   2.172014   1.089952
    11  H    2.146049   1.083241   2.177092   3.463479   3.843787
                    6          7          8          9         10
     6  C    0.000000
     7  Cl   1.763321   0.000000
     8  Cl   2.757794   3.213763   0.000000
     9  Cl   4.518185   6.281503   5.380649   0.000000
    10  H    2.108456   2.791849   4.866216   4.928528   0.000000
    11  H    3.379367   4.887755   2.842513   2.793709   4.931605
                   11
    11  H    0.000000
 Stoichiometry    C6H2Cl3(1-)
 Framework group  CS[SG(C6H2Cl3)]
 Deg. of freedom    19
 Full point group                 CS      NOp   2
 Largest Abelian subgroup         CS      NOp   2
 Largest concise Abelian subgroup C1      NOp   1
                         Standard orientation:                         
 ---------------------------------------------------------------------
 Center     Atomic      Atomic             Coordinates (Angstroms)
 Number     Number       Type             X           Y           Z
 ---------------------------------------------------------------------
      1          6           0        0.000000    0.793661   -0.000000
      2          6           0       -1.190484    0.078154    0.000000
      3          6           0       -1.100261   -1.310236    0.000000
      4          6           0        0.036874   -2.091963    0.000000
      5          6           0        1.202069   -1.299100   -0.000000
      6          6           0        1.203325    0.095773   -0.000000
      7         17           0        2.736642    0.966544   -0.000000
      8         17           0       -0.062177    2.546066   -0.000000
      9         17           0       -2.730726   -2.126216    0.000000
     10          1           0        2.184930   -1.770248   -0.000000
     11          1           0       -2.137635    0.603812    0.000000
 ---------------------------------------------------------------------
 Rotational constants (GHZ):           1.8378395           0.5977143           0.4510280
 Standard basis: 6-311++G(d,p) (5D, 7F)
 There are   183 symmetry adapted cartesian basis functions of A'  symmetry.
 There are    62 symmetry adapted cartesian basis functions of A"  symmetry.
 There are   174 symmetry adapted basis functions of A'  symmetry.
 There are    62 symmetry adapted basis functions of A"  symmetry.
   236 basis functions,   393 primitive gaussians,   245 cartesian basis functions
    45 alpha electrons       45 beta electrons
       nuclear repulsion energy       608.4002092702 Hartrees.
 NAtoms=   11 NActive=   11 NUniq=   11 SFac= 1.00D+00 NAtFMM=   60 NAOKFM=F Big=F
 Integral buffers will be    131072 words long.
 Raffenetti 2 integral format.
 Two-electron integral symmetry is turned on.
 One-electron integrals computed using PRISM.
 NBasis=   236 RedAO= T EigKep=  1.37D-06  NBF=   174    62
 NBsUse=   236 1.00D-06 EigRej= -1.00D+00 NBFU=   174    62
 Initial guess from the checkpoint file:  "frequency_chks/1245tetrachlorobenzene_anion_product_Freq.chk"
 B after Tr=    -0.000000   -0.000000    0.000000
         Rot=    1.000000   -0.000000    0.000000    0.000006 Ang=   0.00 deg.
 Initial guess orbital symmetries:
       Occupied  (A') (A') (A') (A') (A') (A') (A') (A') (A') (A')
                 (A') (A') (A') (A") (A') (A') (A") (A') (A') (A")
                 (A') (A') (A') (A') (A') (A') (A') (A') (A') (A')
                 (A') (A') (A") (A') (A') (A") (A") (A') (A') (A')
                 (A") (A') (A") (A") (A')
       Virtual   (A') (A') (A') (A') (A") (A') (A") (A') (A") (A')
                 (A") (A') (A') (A") (A') (A') (A') (A') (A") (A')
                 (A") (A') (A') (A") (A') (A") (A') (A') (A") (A')
                 (A") (A') (A') (A') (A') (A") (A') (A') (A') (A')
                 (A') (A') (A') (A') (A') (A') (A') (A') (A') (A')
                 (A') (A") (A') (A') (A") (A') (A") (A') (A') (A')
                 (A') (A") (A') (A") (A") (A') (A") (A") (A') (A')
                 (A') (A') (A") (A') (A') (A') (A") (A') (A') (A')
                 (A') (A') (A') (A") (A") (A') (A") (A') (A") (A')
                 (A") (A') (A') (A') (A') (A') (A') (A") (A') (A')
                 (A") (A') (A") (A') (A') (A') (A') (A") (A') (A")
                 (A") (A') (A') (A') (A') (A") (A') (A") (A') (A')
                 (A') (A") (A') (A") (A") (A') (A') (A") (A') (A')
                 (A") (A') (A") (A') (A') (A") (A") (A") (A') (A')
                 (A') (A') (A') (A') (A') (A') (A') (A') (A") (A')
                 (A') (A") (A') (A") (A") (A") (A') (A") (A') (A')
                 (A') (A') (A') (A') (A') (A') (A') (A') (A') (A')
                 (A') (A') (A') (A') (A') (A') (A') (A') (A') (A")
                 (A") (A") (A') (A') (A') (A') (A') (A') (A') (A')
                 (A')
 Keep R1 ints in memory in symmetry-blocked form, NReq=596869867.
 Requested convergence on RMS density matrix=1.00D-08 within 128 cycles.
 Requested convergence on MAX density matrix=1.00D-06.
 Requested convergence on             energy=1.00D-06.
 No special actions if energy rises.
 SCF Done:  E(RM062X) =  -1610.39273168     A.U. after   14 cycles
            NFock= 14  Conv=0.95D-08     -V/T= 2.0024
 Calling FoFJK, ICntrl=      2127 FMM=F ISym2X=1 I1Cent= 0 IOpClX= 0 NMat=1 NMatS=1 NMatT=0.
 ***** Axes restored to original set *****
 -------------------------------------------------------------------
 Center     Atomic                   Forces (Hartrees/Bohr)
 Number     Number              X              Y              Z
 -------------------------------------------------------------------
      1        6           0.000202370    0.000026020    0.000000000
      2        6          -0.000240950   -0.000117689   -0.000000000
      3        6           0.000369619   -0.000721983   -0.000000000
      4        6          -0.000666149    0.000675752    0.000000000
      5        6           0.000108952   -0.000299956   -0.000000000
      6        6           0.000135929    0.000138300    0.000000000
      7       17          -0.000066554    0.000015046   -0.000000000
      8       17          -0.000058019   -0.000042548   -0.000000000
      9       17           0.000169439    0.000183114    0.000000000
     10        1           0.000068640    0.000087096    0.000000000
     11        1          -0.000023277    0.000056847    0.000000000
 -------------------------------------------------------------------
 Cartesian Forces:  Max     0.000721983 RMS     0.000239912

 GradGradGradGradGradGradGradGradGradGradGradGradGradGradGradGradGradGrad
 Berny optimization.
 Using GEDIIS/GDIIS optimizer.
 FormGI is forming the generalized inverse of G from B-inverse, IUseBI=4.
 Internal  Forces:  Max     0.000560012 RMS     0.000136032
 Search for a local minimum.
 Step number   5 out of a maximum of   57
 All quantities printed in internal units (Hartrees-Bohrs-Radians)
 Mixed Optimization -- En-DIIS/RFO-DIIS
 Swapping is turned off.
 Update second derivatives using D2CorX and points    1    2    3    4    5
 DE= -2.65D-05 DEPred=-2.32D-05 R= 1.15D+00
 TightC=F SS=  1.41D+00  RLast= 1.72D-02 DXNew= 8.4853D-01 5.1704D-02
 Trust test= 1.15D+00 RLast= 1.72D-02 DXMaxT set to 5.05D-01
 ITU=  1  1  1  1  0
     Eigenvalues ---    0.02029   0.02047   0.02048   0.02090   0.02093
     Eigenvalues ---    0.02099   0.02114   0.02123   0.10873   0.15513
     Eigenvalues ---    0.16191   0.20207   0.23984   0.24617   0.25064
     Eigenvalues ---    0.25881   0.26709   0.29774   0.30026   0.35674
     Eigenvalues ---    0.35929   0.41656   0.42396   0.45240   0.45437
     Eigenvalues ---    0.46287   0.53142
 En-DIIS/RFO-DIIS/Sim-DIIS IScMMF=       -3 using points:     5    4    3
 RFO step:  Lambda=-3.65623036D-06.
 DidBck=F Rises=F RFO-DIIS coefs:    1.31149   -0.39111    0.07962
 Iteration  1 RMS(Cart)=  0.00072851 RMS(Int)=  0.00000050
 Iteration  2 RMS(Cart)=  0.00000054 RMS(Int)=  0.00000035
 ClnCor:  largest displacement from symmetrization is 2.29D-10 for atom     8.
 Variable       Old X    -DE/DX   Delta X   Delta X   Delta X     New X
                                 (Linear)    (Quad)   (Total)
    R1        2.62475  -0.00012  -0.00011  -0.00014  -0.00025   2.62450
    R2        2.62872  -0.00009   0.00081  -0.00084  -0.00002   2.62869
    R3        3.31365   0.00003  -0.00015   0.00021   0.00006   3.31371
    R4        2.62921   0.00014  -0.00033   0.00065   0.00032   2.62953
    R5        2.04703   0.00006   0.00011   0.00002   0.00012   2.04715
    R6        2.60766  -0.00056  -0.00107  -0.00084  -0.00191   2.60575
    R7        3.44544   0.00024   0.00244   0.00005   0.00250   3.44794
    R8        2.66331  -0.00020  -0.00010  -0.00030  -0.00041   2.66291
    R9        2.63593  -0.00007  -0.00008  -0.00013  -0.00021   2.63572
   R10        2.05971  -0.00009  -0.00026  -0.00009  -0.00036   2.05936
   R11        3.33219   0.00005  -0.00009   0.00019   0.00010   3.33229
    A1        2.07486   0.00006   0.00024   0.00016   0.00040   2.07526
    A2        2.07650   0.00008  -0.00031   0.00069   0.00038   2.07688
    A3        2.13182  -0.00014   0.00007  -0.00085  -0.00078   2.13104
    A4        2.04707  -0.00001  -0.00035   0.00011  -0.00024   2.04684
    A5        2.09376  -0.00002   0.00055  -0.00047   0.00009   2.09385
    A6        2.14235   0.00003  -0.00020   0.00035   0.00015   2.14250
    A7        2.23794  -0.00023  -0.00000  -0.00085  -0.00085   2.23709
    A8        1.96992   0.00002  -0.00014  -0.00002  -0.00016   1.96975
    A9        2.07532   0.00021   0.00015   0.00087   0.00102   2.07634
   A10        1.94185   0.00041   0.00106   0.00091   0.00197   1.94382
   A11        2.16918  -0.00023  -0.00092  -0.00047  -0.00140   2.16779
   A12        2.09710   0.00005  -0.00020   0.00032   0.00012   2.09722
   A13        2.01690   0.00018   0.00112   0.00016   0.00128   2.01818
   A14        2.09545  -0.00001  -0.00002   0.00014   0.00012   2.09557
   A15        2.09955  -0.00008   0.00042  -0.00083  -0.00041   2.09914
   A16        2.08818   0.00009  -0.00040   0.00069   0.00029   2.08847
    D1        0.00000   0.00000   0.00000   0.00000  -0.00000   0.00000
    D2        3.14159   0.00000   0.00000   0.00000   0.00000   3.14159
    D3        3.14159   0.00000   0.00000  -0.00000   0.00000   3.14159
    D4       -0.00000   0.00000   0.00000  -0.00000   0.00000   0.00000
    D5       -0.00000  -0.00000   0.00000  -0.00000   0.00000   0.00000
    D6        3.14159  -0.00000   0.00000  -0.00000   0.00000   3.14159
    D7        3.14159  -0.00000   0.00000   0.00000   0.00000   3.14159
    D8        0.00000  -0.00000   0.00000   0.00000   0.00000   0.00000
    D9        0.00000  -0.00000   0.00000   0.00000   0.00000   0.00000
   D10        3.14159  -0.00000   0.00000   0.00000   0.00000   3.14159
   D11        3.14159   0.00000   0.00000  -0.00000   0.00000   3.14159
   D12        0.00000  -0.00000   0.00000  -0.00000  -0.00000   0.00000
   D13       -0.00000  -0.00000   0.00000  -0.00000   0.00000   0.00000
   D14        3.14159  -0.00000   0.00000  -0.00000   0.00000   3.14159
   D15        0.00000   0.00000   0.00000  -0.00000   0.00000   0.00000
   D16        3.14159   0.00000   0.00000   0.00000   0.00000   3.14159
   D17        0.00000   0.00000   0.00000   0.00000  -0.00000   0.00000
   D18        3.14159   0.00000   0.00000   0.00000   0.00000   3.14159
   D19        3.14159  -0.00000   0.00000  -0.00000   0.00000   3.14159
   D20       -0.00000   0.00000   0.00000   0.00000   0.00000   0.00000
         Item               Value     Threshold  Converged?
 Maximum Force            0.000560     0.000450     NO 
 RMS     Force            0.000136     0.000300     YES
 Maximum Displacement     0.002265     0.001800     NO 
 RMS     Displacement     0.000728     0.001200     YES
 Predicted change in Energy=-1.816721D-06
 GradGradGradGradGradGradGradGradGradGradGradGradGradGradGradGradGradGrad

                          Input orientation:                          
 ---------------------------------------------------------------------
 Center     Atomic      Atomic             Coordinates (Angstroms)
 Number     Number       Type             X           Y           Z
 ---------------------------------------------------------------------
      1          6           0       -1.208039    1.089369    0.000000
      2          6           0        0.001970    1.771064    0.000000
      3          6           0        1.164600    1.006518    0.000000
      4          6           0        1.281108   -0.367456   -0.000000
      5          6           0        0.016948   -0.990035   -0.000000
      6          6           0       -1.196089   -0.301625   -0.000000
      7         17           0       -2.711323   -1.203597   -0.000000
      8         17           0       -2.701457    2.008392    0.000000
      9         17           0        2.680568    2.021850    0.000000
     10          1           0       -0.057974   -2.077221   -0.000000
     11          1           0        0.012794    2.854317    0.000000
 ---------------------------------------------------------------------
                    Distance matrix (angstroms):
                    1          2          3          4          5
     1  C    0.000000
     2  C    1.388823   0.000000
     3  C    2.374085   1.391488   0.000000
     4  C    2.884127   2.491879   1.378905   0.000000
     5  C    2.413403   2.761140   2.302896   1.409151   0.000000
     6  C    1.391045   2.394031   2.698906   2.478072   1.394765
     7  Cl   2.741816   4.026235   4.461770   4.079049   2.736617
     8  Cl   1.753540   2.713825   3.993764   4.637400   4.047258
     9  Cl   3.998848   2.690312   1.824570   2.768983   4.020736
    10  H    3.368967   3.848752   3.317248   2.171736   1.089764
    11  H    2.146036   1.083306   2.177387   3.462432   3.844354
                    6          7          8          9         10
     6  C    0.000000
     7  Cl   1.763374   0.000000
     8  Cl   2.757229   3.212004   0.000000
     9  Cl   4.519624   6.282993   5.382042   0.000000
    10  H    2.109039   2.793471   4.866234   4.929705   0.000000
    11  H    3.379551   4.887482   2.843017   2.794641   4.932045
                   11
    11  H    0.000000
 Stoichiometry    C6H2Cl3(1-)
 Framework group  CS[SG(C6H2Cl3)]
 Deg. of freedom    19
 Full point group                 CS      NOp   2
 Largest Abelian subgroup         CS      NOp   2
 Largest concise Abelian subgroup C1      NOp   1
                         Standard orientation:                         
 ---------------------------------------------------------------------
 Center     Atomic      Atomic             Coordinates (Angstroms)
 Number     Number       Type             X           Y           Z
 ---------------------------------------------------------------------
      1          6           0        0.000000    0.793276    0.000000
      2          6           0       -1.190447    0.077969   -0.000000
      3          6           0       -1.100034   -1.310578   -0.000000
      4          6           0        0.037035   -2.090613   -0.000000
      5          6           0        1.202833   -1.299020    0.000000
      6          6           0        1.203518    0.095744    0.000000
      7         17           0        2.736268    0.967619    0.000000
      8         17           0       -0.061319    2.545744    0.000000
      9         17           0       -2.731708   -2.127092   -0.000000
     10          1           0        2.185115   -1.770941    0.000000
     11          1           0       -2.137645    0.603678   -0.000000
 ---------------------------------------------------------------------
 Rotational constants (GHZ):           1.8392111           0.5974177           0.4509416
 Standard basis: 6-311++G(d,p) (5D, 7F)
 There are   183 symmetry adapted cartesian basis functions of A'  symmetry.
 There are    62 symmetry adapted cartesian basis functions of A"  symmetry.
 There are   174 symmetry adapted basis functions of A'  symmetry.
 There are    62 symmetry adapted basis functions of A"  symmetry.
   236 basis functions,   393 primitive gaussians,   245 cartesian basis functions
    45 alpha electrons       45 beta electrons
       nuclear repulsion energy       608.3866010567 Hartrees.
 NAtoms=   11 NActive=   11 NUniq=   11 SFac= 1.00D+00 NAtFMM=   60 NAOKFM=F Big=F
 Integral buffers will be    131072 words long.
 Raffenetti 2 integral format.
 Two-electron integral symmetry is turned on.
 One-electron integrals computed using PRISM.
 NBasis=   236 RedAO= T EigKep=  1.37D-06  NBF=   174    62
 NBsUse=   236 1.00D-06 EigRej= -1.00D+00 NBFU=   174    62
 Initial guess from the checkpoint file:  "frequency_chks/1245tetrachlorobenzene_anion_product_Freq.chk"
 B after Tr=    -0.000000   -0.000000    0.000000
         Rot=    1.000000    0.000000    0.000000   -0.000034 Ang=  -0.00 deg.
 Initial guess orbital symmetries:
       Occupied  (A') (A') (A') (A') (A') (A') (A') (A') (A') (A')
                 (A') (A') (A') (A") (A') (A') (A") (A') (A') (A")
                 (A') (A') (A') (A') (A') (A') (A') (A') (A') (A')
                 (A') (A') (A") (A') (A') (A") (A") (A') (A') (A')
                 (A") (A') (A") (A") (A')
       Virtual   (A') (A') (A') (A') (A") (A') (A") (A') (A") (A')
                 (A") (A') (A') (A") (A') (A') (A') (A') (A") (A')
                 (A") (A') (A') (A") (A') (A") (A') (A') (A") (A')
                 (A") (A') (A') (A') (A') (A") (A') (A') (A') (A')
                 (A') (A') (A') (A') (A') (A') (A') (A') (A') (A')
                 (A') (A") (A') (A') (A") (A') (A") (A') (A') (A')
                 (A') (A") (A') (A") (A") (A') (A") (A") (A') (A')
                 (A') (A') (A") (A') (A') (A') (A") (A') (A') (A')
                 (A') (A') (A") (A') (A") (A') (A") (A') (A") (A')
                 (A") (A') (A') (A') (A') (A') (A') (A") (A') (A')
                 (A") (A') (A") (A') (A') (A') (A') (A") (A') (A")
                 (A") (A') (A') (A') (A') (A") (A') (A") (A') (A')
                 (A') (A") (A') (A") (A") (A') (A') (A") (A') (A')
                 (A") (A') (A") (A') (A') (A") (A") (A") (A') (A')
                 (A') (A') (A') (A') (A') (A') (A') (A') (A") (A')
                 (A') (A") (A') (A") (A") (A") (A') (A") (A') (A')
                 (A') (A') (A') (A') (A') (A') (A') (A') (A') (A')
                 (A') (A') (A') (A') (A') (A') (A') (A') (A') (A")
                 (A") (A") (A') (A') (A') (A') (A') (A') (A') (A')
                 (A')
 Keep R1 ints in memory in symmetry-blocked form, NReq=596869867.
 Requested convergence on RMS density matrix=1.00D-08 within 128 cycles.
 Requested convergence on MAX density matrix=1.00D-06.
 Requested convergence on             energy=1.00D-06.
 No special actions if energy rises.
 SCF Done:  E(RM062X) =  -1610.39273382     A.U. after   17 cycles
            NFock= 17  Conv=0.86D-08     -V/T= 2.0024
 Calling FoFJK, ICntrl=      2127 FMM=F ISym2X=1 I1Cent= 0 IOpClX= 0 NMat=1 NMatS=1 NMatT=0.
 ***** Axes restored to original set *****
 -------------------------------------------------------------------
 Center     Atomic                   Forces (Hartrees/Bohr)
 Number     Number              X              Y              Z
 -------------------------------------------------------------------
      1        6           0.000100949    0.000062088    0.000000000
      2        6          -0.000072577    0.000011707   -0.000000000
      3        6           0.000159142   -0.000187408   -0.000000000
      4        6          -0.000163168    0.000138692    0.000000000
      5        6           0.000082368   -0.000005130    0.000000000
      6        6           0.000078215   -0.000020076    0.000000000
      7       17          -0.000046752   -0.000047073   -0.000000000
      8       17          -0.000014534    0.000036034    0.000000000
      9       17          -0.000078078   -0.000005889   -0.000000000
     10        1          -0.000012767   -0.000005377   -0.000000000
     11        1          -0.000032798    0.000022431    0.000000000
 -------------------------------------------------------------------
 Cartesian Forces:  Max     0.000187408 RMS     0.000068069

 GradGradGradGradGradGradGradGradGradGradGradGradGradGradGradGradGradGrad
 Berny optimization.
 Using GEDIIS/GDIIS optimizer.
 FormGI is forming the generalized inverse of G from B-inverse, IUseBI=4.
 Internal  Forces:  Max     0.000136183 RMS     0.000039795
 Search for a local minimum.
 Step number   6 out of a maximum of   57
 All quantities printed in internal units (Hartrees-Bohrs-Radians)
 Mixed Optimization -- En-DIIS/RFO-DIIS
 Swapping is turned off.
 Update second derivatives using D2CorX and points    1    2    3    4    5
                                                      6
 DE= -2.13D-06 DEPred=-1.82D-06 R= 1.17D+00
 TightC=F SS=  1.41D+00  RLast= 4.58D-03 DXNew= 8.4853D-01 1.3731D-02
 Trust test= 1.17D+00 RLast= 4.58D-03 DXMaxT set to 5.05D-01
 ITU=  1  1  1  1  1  0
     Eigenvalues ---    0.02029   0.02047   0.02048   0.02090   0.02093
     Eigenvalues ---    0.02099   0.02114   0.02123   0.10554   0.15458
     Eigenvalues ---    0.16325   0.17959   0.23979   0.24619   0.25063
     Eigenvalues ---    0.26390   0.27532   0.29763   0.30535   0.35702
     Eigenvalues ---    0.35937   0.40936   0.41779   0.45059   0.45526
     Eigenvalues ---    0.47003   0.52352
 En-DIIS/RFO-DIIS/Sim-DIIS IScMMF=       -3 using points:     6    5    4    3
 RFO step:  Lambda=-2.48557586D-07.
 Use linear search instead of GDIIS.
 RFO step:  Lambda=-2.04837669D-07 EMin= 2.02869023D-02
 Quartic linear search produced a step of  0.11266.
 Iteration  1 RMS(Cart)=  0.00015848 RMS(Int)=  0.00000003
 Iteration  2 RMS(Cart)=  0.00000003 RMS(Int)=  0.00000002
 ClnCor:  largest displacement from symmetrization is 5.88D-11 for atom     8.
 Variable       Old X    -DE/DX   Delta X   Delta X   Delta X     New X
                                 (Linear)    (Quad)   (Total)
    R1        2.62450  -0.00009  -0.00003  -0.00017  -0.00020   2.62430
    R2        2.62869   0.00007  -0.00000   0.00018   0.00018   2.62887
    R3        3.31371   0.00003   0.00001   0.00011   0.00012   3.31383
    R4        2.62953   0.00005   0.00004   0.00011   0.00015   2.62968
    R5        2.04715   0.00002   0.00001   0.00004   0.00006   2.04721
    R6        2.60575  -0.00014  -0.00022  -0.00019  -0.00040   2.60535
    R7        3.44794  -0.00007   0.00028  -0.00043  -0.00015   3.44779
    R8        2.66291  -0.00009  -0.00005  -0.00018  -0.00023   2.66268
    R9        2.63572  -0.00002  -0.00002  -0.00003  -0.00006   2.63567
   R10        2.05936   0.00001  -0.00004   0.00003  -0.00001   2.05935
   R11        3.33229   0.00006   0.00001   0.00020   0.00021   3.33251
    A1        2.07526   0.00000   0.00005   0.00003   0.00008   2.07534
    A2        2.07688  -0.00004   0.00004  -0.00020  -0.00015   2.07673
    A3        2.13104   0.00004  -0.00009   0.00016   0.00008   2.13112
    A4        2.04684  -0.00002  -0.00003  -0.00004  -0.00007   2.04677
    A5        2.09385  -0.00002   0.00001  -0.00017  -0.00016   2.09368
    A6        2.14250   0.00004   0.00002   0.00022   0.00023   2.14274
    A7        2.23709  -0.00001  -0.00010  -0.00007  -0.00017   2.23692
    A8        1.96975  -0.00006  -0.00002  -0.00015  -0.00017   1.96959
    A9        2.07634   0.00007   0.00011   0.00022   0.00034   2.07668
   A10        1.94382   0.00007   0.00022   0.00021   0.00043   1.94425
   A11        2.16779  -0.00003  -0.00016  -0.00013  -0.00028   2.16751
   A12        2.09722   0.00003   0.00001   0.00016   0.00017   2.09739
   A13        2.01818   0.00000   0.00014  -0.00003   0.00011   2.01829
   A14        2.09557  -0.00001   0.00001  -0.00001   0.00001   2.09558
   A15        2.09914   0.00003  -0.00005   0.00012   0.00008   2.09922
   A16        2.08847  -0.00002   0.00003  -0.00012  -0.00008   2.08839
    D1        0.00000   0.00000   0.00000   0.00000   0.00000   0.00000
    D2        3.14159   0.00000   0.00000  -0.00000   0.00000   3.14159
    D3        3.14159   0.00000   0.00000   0.00000   0.00000   3.14159
    D4       -0.00000   0.00000   0.00000   0.00000   0.00000   0.00000
    D5       -0.00000  -0.00000   0.00000  -0.00000   0.00000   0.00000
    D6        3.14159  -0.00000   0.00000  -0.00000   0.00000   3.14159
    D7        3.14159  -0.00000   0.00000  -0.00000   0.00000   3.14159
    D8        0.00000  -0.00000   0.00000  -0.00000   0.00000   0.00000
    D9       -0.00000  -0.00000   0.00000  -0.00000   0.00000   0.00000
   D10        3.14159  -0.00000   0.00000  -0.00000   0.00000   3.14159
   D11        3.14159   0.00000   0.00000   0.00000   0.00000   3.14159
   D12        0.00000  -0.00000   0.00000  -0.00000  -0.00000   0.00000
   D13        0.00000  -0.00000   0.00000   0.00000  -0.00000   0.00000
   D14        3.14159   0.00000   0.00000   0.00000   0.00000   3.14159
   D15        0.00000   0.00000   0.00000   0.00000   0.00000   0.00000
   D16        3.14159   0.00000   0.00000   0.00000   0.00000   3.14159
   D17       -0.00000   0.00000   0.00000  -0.00000   0.00000   0.00000
   D18        3.14159   0.00000   0.00000  -0.00000   0.00000   3.14159
   D19        3.14159   0.00000   0.00000  -0.00000   0.00000   3.14159
   D20       -0.00000   0.00000   0.00000  -0.00000   0.00000   0.00000
         Item               Value     Threshold  Converged?
 Maximum Force            0.000136     0.000450     YES
 RMS     Force            0.000040     0.000300     YES
 Maximum Displacement     0.000501     0.001800     YES
 RMS     Displacement     0.000158     0.001200     YES
 Predicted change in Energy=-1.242785D-07
 Optimization completed.
    -- Stationary point found.
                           ----------------------------
                           !   Optimized Parameters   !
                           ! (Angstroms and Degrees)  !
 --------------------------                            --------------------------
 ! Name  Definition              Value          Derivative Info.                !
 --------------------------------------------------------------------------------
 ! R1    R(1,2)                  1.3888         -DE/DX =   -0.0001              !
 ! R2    R(1,6)                  1.391          -DE/DX =    0.0001              !
 ! R3    R(1,8)                  1.7535         -DE/DX =    0.0                 !
 ! R4    R(2,3)                  1.3915         -DE/DX =    0.0                 !
 ! R5    R(2,11)                 1.0833         -DE/DX =    0.0                 !
 ! R6    R(3,4)                  1.3789         -DE/DX =   -0.0001              !
 ! R7    R(3,9)                  1.8246         -DE/DX =   -0.0001              !
 ! R8    R(4,5)                  1.4092         -DE/DX =   -0.0001              !
 ! R9    R(5,6)                  1.3948         -DE/DX =    0.0                 !
 ! R10   R(5,10)                 1.0898         -DE/DX =    0.0                 !
 ! R11   R(6,7)                  1.7634         -DE/DX =    0.0001              !
 ! A1    A(2,1,6)              118.9039         -DE/DX =    0.0                 !
 ! A2    A(2,1,8)              118.9966         -DE/DX =    0.0                 !
 ! A3    A(6,1,8)              122.0996         -DE/DX =    0.0                 !
 ! A4    A(1,2,3)              117.275          -DE/DX =    0.0                 !
 ! A5    A(1,2,11)             119.9685         -DE/DX =    0.0                 !
 ! A6    A(3,2,11)             122.7565         -DE/DX =    0.0                 !
 ! A7    A(2,3,4)              128.1758         -DE/DX =    0.0                 !
 ! A8    A(2,3,9)              112.8586         -DE/DX =   -0.0001              !
 ! A9    A(4,3,9)              118.9656         -DE/DX =    0.0001              !
 ! A10   A(3,4,5)              111.3726         -DE/DX =    0.0001              !
 ! A11   A(4,5,6)              124.2051         -DE/DX =    0.0                 !
 ! A12   A(4,5,10)             120.1618         -DE/DX =    0.0                 !
 ! A13   A(6,5,10)             115.6331         -DE/DX =    0.0                 !
 ! A14   A(1,6,5)              120.0675         -DE/DX =    0.0                 !
 ! A15   A(1,6,7)              120.2719         -DE/DX =    0.0                 !
 ! A16   A(5,6,7)              119.6606         -DE/DX =    0.0                 !
 ! D1    D(6,1,2,3)              0.0            -DE/DX =    0.0                 !
 ! D2    D(6,1,2,11)           180.0            -DE/DX =    0.0                 !
 ! D3    D(8,1,2,3)            180.0            -DE/DX =    0.0                 !
 ! D4    D(8,1,2,11)             0.0            -DE/DX =    0.0                 !
 ! D5    D(2,1,6,5)              0.0            -DE/DX =    0.0                 !
 ! D6    D(2,1,6,7)            180.0            -DE/DX =    0.0                 !
 ! D7    D(8,1,6,5)            180.0            -DE/DX =    0.0                 !
 ! D8    D(8,1,6,7)              0.0            -DE/DX =    0.0                 !
 ! D9    D(1,2,3,4)              0.0            -DE/DX =    0.0                 !
 ! D10   D(1,2,3,9)            180.0            -DE/DX =    0.0                 !
 ! D11   D(11,2,3,4)           180.0            -DE/DX =    0.0                 !
 ! D12   D(11,2,3,9)             0.0            -DE/DX =    0.0                 !
 ! D13   D(2,3,4,5)              0.0            -DE/DX =    0.0                 !
 ! D14   D(9,3,4,5)            180.0            -DE/DX =    0.0                 !
 ! D15   D(3,4,5,6)              0.0            -DE/DX =    0.0                 !
 ! D16   D(3,4,5,10)           180.0            -DE/DX =    0.0                 !
 ! D17   D(4,5,6,1)              0.0            -DE/DX =    0.0                 !
 ! D18   D(4,5,6,7)            180.0            -DE/DX =    0.0                 !
 ! D19   D(10,5,6,1)           180.0            -DE/DX =    0.0                 !
 ! D20   D(10,5,6,7)             0.0            -DE/DX =    0.0                 !
 --------------------------------------------------------------------------------
 GradGradGradGradGradGradGradGradGradGradGradGradGradGradGradGradGradGrad

                          Input orientation:                          
 ---------------------------------------------------------------------
 Center     Atomic      Atomic             Coordinates (Angstroms)
 Number     Number       Type             X           Y           Z
 ---------------------------------------------------------------------
      1          6           0       -1.208039    1.089369    0.000000
      2          6           0        0.001970    1.771064    0.000000
      3          6           0        1.164600    1.006518    0.000000
      4          6           0        1.281108   -0.367456   -0.000000
      5          6           0        0.016948   -0.990035   -0.000000
      6          6           0       -1.196089   -0.301625   -0.000000
      7         17           0       -2.711323   -1.203597   -0.000000
      8         17           0       -2.701457    2.008392    0.000000
      9         17           0        2.680568    2.021850    0.000000
     10          1           0       -0.057974   -2.077221   -0.000000
     11          1           0        0.012794    2.854317    0.000000
 ---------------------------------------------------------------------
                    Distance matrix (angstroms):
                    1          2          3          4          5
     1  C    0.000000
     2  C    1.388823   0.000000
     3  C    2.374085   1.391488   0.000000
     4  C    2.884127   2.491879   1.378905   0.000000
     5  C    2.413403   2.761140   2.302896   1.409151   0.000000
     6  C    1.391045   2.394031   2.698906   2.478072   1.394765
     7  Cl   2.741816   4.026235   4.461770   4.079049   2.736617
     8  Cl   1.753540   2.713825   3.993764   4.637400   4.047258
     9  Cl   3.998848   2.690312   1.824570   2.768983   4.020736
    10  H    3.368967   3.848752   3.317248   2.171736   1.089764
    11  H    2.146036   1.083306   2.177387   3.462432   3.844354
                    6          7          8          9         10
     6  C    0.000000
     7  Cl   1.763374   0.000000
     8  Cl   2.757229   3.212004   0.000000
     9  Cl   4.519624   6.282993   5.382042   0.000000
    10  H    2.109039   2.793471   4.866234   4.929705   0.000000
    11  H    3.379551   4.887482   2.843017   2.794641   4.932045
                   11
    11  H    0.000000
 Stoichiometry    C6H2Cl3(1-)
 Framework group  CS[SG(C6H2Cl3)]
 Deg. of freedom    19
 Full point group                 CS      NOp   2
 Largest Abelian subgroup         CS      NOp   2
 Largest concise Abelian subgroup C1      NOp   1
                         Standard orientation:                         
 ---------------------------------------------------------------------
 Center     Atomic      Atomic             Coordinates (Angstroms)
 Number     Number       Type             X           Y           Z
 ---------------------------------------------------------------------
      1          6           0        0.000000    0.793276    0.000000
      2          6           0       -1.190447    0.077969   -0.000000
      3          6           0       -1.100034   -1.310578   -0.000000
      4          6           0        0.037035   -2.090613    0.000000
      5          6           0        1.202833   -1.299020    0.000000
      6          6           0        1.203518    0.095744    0.000000
      7         17           0        2.736268    0.967619    0.000000
      8         17           0       -0.061319    2.545744   -0.000000
      9         17           0       -2.731708   -2.127092   -0.000000
     10          1           0        2.185115   -1.770941    0.000000
     11          1           0       -2.137645    0.603678   -0.000000
 ---------------------------------------------------------------------
 Rotational constants (GHZ):           1.8392111           0.5974177           0.4509416

 **********************************************************************

            Population analysis using the SCF Density.

 **********************************************************************

 Orbital symmetries:
       Occupied  (A') (A') (A') (A') (A') (A') (A') (A') (A') (A')
                 (A') (A') (A') (A") (A') (A') (A") (A') (A') (A")
                 (A') (A') (A') (A') (A') (A') (A') (A') (A') (A')
                 (A') (A') (A") (A') (A') (A") (A") (A') (A') (A')
                 (A") (A') (A") (A") (A')
       Virtual   (A') (A') (A') (A') (A") (A') (A") (A') (A") (A')
                 (A") (A') (A') (A") (A') (A') (A') (A') (A") (A')
                 (A") (A') (A') (A") (A') (A") (A') (A') (A") (A')
                 (A") (A') (A') (A') (A') (A") (A') (A') (A') (A')
                 (A') (A') (A') (A') (A') (A') (A') (A') (A') (A')
                 (A') (A") (A') (A') (A") (A') (A") (A') (A') (A')
                 (A') (A") (A') (A") (A") (A') (A") (A") (A') (A')
                 (A') (A') (A") (A') (A') (A') (A") (A') (A') (A')
                 (A') (A') (A") (A') (A") (A') (A") (A') (A") (A')
                 (A") (A') (A') (A') (A') (A') (A') (A") (A') (A')
                 (A") (A') (A") (A') (A') (A') (A') (A") (A') (A")
                 (A") (A') (A') (A') (A') (A") (A') (A") (A') (A')
                 (A') (A") (A') (A") (A") (A') (A') (A") (A') (A')
                 (A") (A') (A") (A') (A') (A") (A") (A") (A') (A')
                 (A') (A') (A') (A') (A') (A') (A') (A') (A") (A')
                 (A') (A") (A') (A") (A") (A") (A') (A") (A') (A')
                 (A') (A') (A') (A') (A') (A') (A') (A') (A') (A')
                 (A') (A') (A') (A') (A') (A') (A') (A') (A') (A")
                 (A") (A") (A') (A') (A') (A') (A') (A') (A') (A')
                 (A')
 The electronic state is 1-A'.
 Alpha  occ. eigenvalues -- -102.55802-102.55049-102.50965 -10.47480 -10.46947
 Alpha  occ. eigenvalues --  -10.44520 -10.41999 -10.40136 -10.34394  -9.70064
 Alpha  occ. eigenvalues --   -9.69311  -9.65234  -7.42565  -7.41917  -7.41912
 Alpha  occ. eigenvalues --   -7.41801  -7.41172  -7.41161  -7.37680  -7.37115
 Alpha  occ. eigenvalues --   -7.37101  -0.88146  -0.82514  -0.81301  -0.75754
 Alpha  occ. eigenvalues --   -0.68695  -0.65236  -0.55253  -0.50841  -0.43164
 Alpha  occ. eigenvalues --   -0.40142  -0.38245  -0.35233  -0.35133  -0.32909
 Alpha  occ. eigenvalues --   -0.28677  -0.28067  -0.27994  -0.26237  -0.24643
 Alpha  occ. eigenvalues --   -0.22860  -0.21916  -0.15871  -0.13979  -0.08666
 Alpha virt. eigenvalues --    0.10733   0.11489   0.12468   0.14436   0.14591
 Alpha virt. eigenvalues --    0.14964   0.16570   0.17598   0.17670   0.18512
 Alpha virt. eigenvalues --    0.18800   0.19668   0.20021   0.20295   0.20960
 Alpha virt. eigenvalues --    0.21038   0.22684   0.23226   0.23276   0.24193
 Alpha virt. eigenvalues --    0.24280   0.24936   0.25569   0.25689   0.26972
 Alpha virt. eigenvalues --    0.27464   0.27608   0.29517   0.29769   0.31152
 Alpha virt. eigenvalues --    0.31410   0.32037   0.32828   0.33733   0.35197
 Alpha virt. eigenvalues --    0.36169   0.36520   0.36999   0.37492   0.37725
 Alpha virt. eigenvalues --    0.38294   0.39865   0.41729   0.42276   0.42399
 Alpha virt. eigenvalues --    0.43639   0.46854   0.47895   0.50150   0.51018
 Alpha virt. eigenvalues --    0.57699   0.58159   0.58709   0.60934   0.61969
 Alpha virt. eigenvalues --    0.62015   0.63078   0.63500   0.65192   0.67275
 Alpha virt. eigenvalues --    0.69642   0.70791   0.73466   0.75603   0.76443
 Alpha virt. eigenvalues --    0.77135   0.78832   0.79726   0.81059   0.82781
 Alpha virt. eigenvalues --    0.83911   0.85747   0.86024   0.88728   0.90746
 Alpha virt. eigenvalues --    0.92825   0.96413   0.96548   1.01749   1.02613
 Alpha virt. eigenvalues --    1.03405   1.04553   1.05177   1.05192   1.05861
 Alpha virt. eigenvalues --    1.06726   1.07761   1.09890   1.10114   1.10809
 Alpha virt. eigenvalues --    1.11092   1.11653   1.12793   1.14716   1.15603
 Alpha virt. eigenvalues --    1.17231   1.18083   1.20208   1.21905   1.26623
 Alpha virt. eigenvalues --    1.28356   1.33006   1.34675   1.36727   1.41416
 Alpha virt. eigenvalues --    1.41875   1.44651   1.46442   1.48621   1.48823
 Alpha virt. eigenvalues --    1.53429   1.65761   1.67815   1.71614   1.73817
 Alpha virt. eigenvalues --    1.76364   1.81352   1.87303   1.89987   1.92866
 Alpha virt. eigenvalues --    1.96810   1.98056   2.04842   2.08628   2.11206
 Alpha virt. eigenvalues --    2.11584   2.17345   2.18412   2.19439   2.24738
 Alpha virt. eigenvalues --    2.27934   2.30476   2.40640   2.40858   2.41499
 Alpha virt. eigenvalues --    2.45456   2.47268   2.50700   2.51496   2.55157
 Alpha virt. eigenvalues --    2.58830   2.62108   2.65047   2.67010   2.69608
 Alpha virt. eigenvalues --    2.73729   2.77756   2.83990   2.85067   2.89206
 Alpha virt. eigenvalues --    2.90998   2.98622   2.98926   2.99863   3.08022
 Alpha virt. eigenvalues --    3.11091   3.15998   3.27970   3.30990   3.35577
 Alpha virt. eigenvalues --    3.39892   3.46108   3.55970   3.68623   3.70498
 Alpha virt. eigenvalues --    3.95078   4.03228   4.14898   4.30058   4.91584
 Alpha virt. eigenvalues --   10.06042  10.11799  10.12291  23.61981  24.05863
 Alpha virt. eigenvalues --   24.14353  24.25725  24.28356  24.36187  26.01612
 Alpha virt. eigenvalues --   26.08581  26.10378  26.31050  26.33322  26.42593
 Alpha virt. eigenvalues --   26.72412  26.76849  26.99579 216.15754 216.22243
 Alpha virt. eigenvalues --  216.22892
          Condensed to atoms (all electrons):
               1          2          3          4          5          6
     1  C   38.090921 -19.255850   4.878336  -1.392279  -3.659355 -11.725441
     2  C  -19.255850  60.098495 -15.495078  -7.528640 -15.084622   1.307843
     3  C    4.878336 -15.495078  22.685983   2.586635   2.026088  -7.750884
     4  C   -1.392279  -7.528640   2.586635  13.253277   0.191531  -1.042094
     5  C   -3.659355 -15.084622   2.026088   0.191531  33.379997  -9.162828
     6  C  -11.725441   1.307843  -7.750884  -1.042094  -9.162828  35.010070
     7  Cl   0.566003   0.948226  -0.096051   0.434591  -1.346485  -1.214417
     8  Cl  -1.189627  -0.490401  -0.298832  -0.081273   1.180082   0.187164
     9  Cl  -0.549462   2.252150  -2.156366  -0.588028  -0.159915   0.088879
    10  H    0.227087  -0.152394  -0.111855   0.098328   0.451613  -0.399470
    11  H   -0.403345   1.102889  -0.272905  -0.073323  -0.149799   0.002572
               7          8          9         10         11
     1  C    0.566003  -1.189627  -0.549462   0.227087  -0.403345
     2  C    0.948226  -0.490401   2.252150  -0.152394   1.102889
     3  C   -0.096051  -0.298832  -2.156366  -0.111855  -0.272905
     4  C    0.434591  -0.081273  -0.588028   0.098328  -0.073323
     5  C   -1.346485   1.180082  -0.159915   0.451613  -0.149799
     6  C   -1.214417   0.187164   0.088879  -0.399470   0.002572
     7  Cl  17.699176  -0.292212  -0.016219   0.032250  -0.002731
     8  Cl  -0.292212  17.674360  -0.004828  -0.004319   0.007782
     9  Cl  -0.016219  -0.004828  17.847618   0.004772   0.079787
    10  H    0.032250  -0.004319   0.004772   0.695496   0.000099
    11  H   -0.002731   0.007782   0.079787   0.000099   0.557845
 Mulliken charges:
               1
     1  C    0.413012
     2  C   -1.702618
     3  C    0.004929
     4  C    0.141275
     5  C   -1.666308
     6  C    0.698606
     7  Cl   0.287870
     8  Cl   0.312102
     9  Cl   0.201611
    10  H    0.158392
    11  H    0.151129
 Sum of Mulliken charges =  -1.00000
 Mulliken charges with hydrogens summed into heavy atoms:
               1
     1  C    0.413012
     2  C   -1.551489
     3  C    0.004929
     4  C    0.141275
     5  C   -1.507916
     6  C    0.698606
     7  Cl   0.287870
     8  Cl   0.312102
     9  Cl   0.201611
 Electronic spatial extent (au):  <R**2>=           2181.4822
 Charge=             -1.0000 electrons
 Dipole moment (field-independent basis, Debye):
    X=              0.9010    Y=              5.6309    Z=             -0.0000  Tot=              5.7025
 Quadrupole moment (field-independent basis, Debye-Ang):
   XX=            -91.2651   YY=           -104.5548   ZZ=            -78.7138
   XY=            -10.1265   XZ=              0.0000   YZ=              0.0000
 Traceless Quadrupole moment (field-independent basis, Debye-Ang):
   XX=              0.2462   YY=            -13.0436   ZZ=             12.7974
   XY=            -10.1265   XZ=              0.0000   YZ=              0.0000
 Octapole moment (field-independent basis, Debye-Ang**2):
  XXX=             13.3767  YYY=             76.6816  ZZZ=             -0.0000  XYY=             15.1075
  XXY=             21.8680  XXZ=             -0.0000  XZZ=              0.7643  YZZ=              9.1546
  YYZ=             -0.0000  XYZ=             -0.0000
 Hexadecapole moment (field-independent basis, Debye-Ang**3):
 XXXX=          -1619.1144 YYYY=          -1589.8986 ZZZZ=            -98.9866 XXXY=           -382.4835
 XXXZ=              0.0000 YYYX=           -352.0949 YYYZ=              0.0000 ZZZX=             -0.0000
 ZZZY=             -0.0000 XXYY=           -522.8910 XXZZ=           -279.1383 YYZZ=           -259.7798
 XXYZ=              0.0000 YYXZ=              0.0000 ZZXY=           -108.2988
 N-N= 6.083866010567D+02 E-N=-5.046566136443D+03  KE= 1.606604882183D+03
 Symmetry A'   KE= 1.462617382345D+03
 Symmetry A"   KE= 1.439874998381D+02
 1\1\GINC-SH03-07N64\FOpt\RM062X\6-311++G(d,p)\C6H2Cl3(1-)\JLAPIER\03-A
 pr-2026\0\\# opt freq 6-311++g(d,p) m062x\\1,2,4, trichlorobenzene ani
 on radical\\-1,1\C,-1.2080385887,1.0893689569,0.\C,0.0019704459,1.7710
 641224,0.\C,1.1645999913,1.0065184257,0.\C,1.2811083214,-0.367455561,0
 .\C,0.016948338,-0.9900350059,0.\C,-1.1960891916,-0.30162455,0.\Cl,-2.
 7113229969,-1.2035971592,0.\Cl,-2.7014573825,2.0083919219,0.\Cl,2.6805
 681191,2.0218498232,0.\H,-0.0579741286,-2.0772205292,0.\H,0.0127938007
 ,2.8543165471,0.\\Version=ES64L-G16RevB.01\State=1-A'\HF=-1610.3927338
 \RMSD=8.560e-09\RMSF=6.807e-05\Dipole=-2.1012876,0.7861712,0.\Quadrupo
 le=-13.7538301,4.2392757,9.5145545,0.3895038,0.,0.\PG=CS [SG(C6H2Cl3)]
 \\@


 HEAVEN'S NET CASTS WIDE.
 THOUGH ITS MESHES ARE COARSE, NOTHING SLIPS THROUGH.

                                          -- LAO-TSU
 Job cpu time:       0 days  0 hours 14 minutes 20.8 seconds.
 Elapsed time:       0 days  0 hours  3 minutes 47.5 seconds.
 File lengths (MBytes):  RWF=     37 Int=      0 D2E=      0 Chk=      5 Scr=      1
 Normal termination of Gaussian 16 at Fri Apr  3 14:16:18 2026.
 Link1:  Proceeding to internal job step number  2.
 ----------------------------------------------------------------------
 #N Geom=AllCheck Guess=TCheck SCRF=Check GenChk RM062X/6-311++G(d,p) F
 req
 ----------------------------------------------------------------------
 1/10=4,29=7,30=1,38=1,40=1/1,3;
 2/12=2,40=1/2;
 3/5=4,6=6,7=1111,11=2,14=-4,25=1,30=1,70=2,71=2,74=-55,116=1,140=1/1,2,3;
 4/5=101/1;
 5/5=2,38=6,98=1/2;
 8/6=4,10=90,11=11/1;
 11/6=1,8=1,9=11,15=111,16=1/1,2,10;
 10/6=1/2;
 6/7=2,8=2,9=2,10=2,28=1/1;
 7/8=1,10=1,25=1/1,2,3,16;
 1/10=4,30=1/3;
 99//99;
 Structure from the checkpoint file:  "frequency_chks/1245tetrachlorobenzene_anion_product_Freq.chk"
 -------------------------------------
 1,2,4, trichlorobenzene anion radical
 -------------------------------------
 Charge = -1 Multiplicity = 1
 Redundant internal coordinates found in file.  (old form).
 C,0,-1.2080385887,1.0893689569,0.
 C,0,0.0019704459,1.7710641224,0.
 C,0,1.1645999913,1.0065184257,0.
 C,0,1.2811083214,-0.367455561,0.
 C,0,0.016948338,-0.9900350059,0.
 C,0,-1.1960891916,-0.30162455,0.
 Cl,0,-2.7113229969,-1.2035971592,0.
 Cl,0,-2.7014573825,2.0083919219,0.
 Cl,0,2.6805681191,2.0218498232,0.
 H,0,-0.0579741286,-2.0772205292,0.
 H,0,0.0127938007,2.8543165471,0.
 Recover connectivity data from disk.

 GradGradGradGradGradGradGradGradGradGradGradGradGradGradGradGradGradGrad
 Berny optimization.
 Initialization pass.
                           ----------------------------
                           !    Initial Parameters    !
                           ! (Angstroms and Degrees)  !
 --------------------------                            --------------------------
 ! Name  Definition              Value          Derivative Info.                !
 --------------------------------------------------------------------------------
 ! R1    R(1,2)                  1.3888         calculate D2E/DX2 analytically  !
 ! R2    R(1,6)                  1.391          calculate D2E/DX2 analytically  !
 ! R3    R(1,8)                  1.7535         calculate D2E/DX2 analytically  !
 ! R4    R(2,3)                  1.3915         calculate D2E/DX2 analytically  !
 ! R5    R(2,11)                 1.0833         calculate D2E/DX2 analytically  !
 ! R6    R(3,4)                  1.3789         calculate D2E/DX2 analytically  !
 ! R7    R(3,9)                  1.8246         calculate D2E/DX2 analytically  !
 ! R8    R(4,5)                  1.4092         calculate D2E/DX2 analytically  !
 ! R9    R(5,6)                  1.3948         calculate D2E/DX2 analytically  !
 ! R10   R(5,10)                 1.0898         calculate D2E/DX2 analytically  !
 ! R11   R(6,7)                  1.7634         calculate D2E/DX2 analytically  !
 ! A1    A(2,1,6)              118.9039         calculate D2E/DX2 analytically  !
 ! A2    A(2,1,8)              118.9966         calculate D2E/DX2 analytically  !
 ! A3    A(6,1,8)              122.0996         calculate D2E/DX2 analytically  !
 ! A4    A(1,2,3)              117.275          calculate D2E/DX2 analytically  !
 ! A5    A(1,2,11)             119.9685         calculate D2E/DX2 analytically  !
 ! A6    A(3,2,11)             122.7565         calculate D2E/DX2 analytically  !
 ! A7    A(2,3,4)              128.1758         calculate D2E/DX2 analytically  !
 ! A8    A(2,3,9)              112.8586         calculate D2E/DX2 analytically  !
 ! A9    A(4,3,9)              118.9656         calculate D2E/DX2 analytically  !
 ! A10   A(3,4,5)              111.3726         calculate D2E/DX2 analytically  !
 ! A11   A(4,5,6)              124.2051         calculate D2E/DX2 analytically  !
 ! A12   A(4,5,10)             120.1618         calculate D2E/DX2 analytically  !
 ! A13   A(6,5,10)             115.6331         calculate D2E/DX2 analytically  !
 ! A14   A(1,6,5)              120.0675         calculate D2E/DX2 analytically  !
 ! A15   A(1,6,7)              120.2719         calculate D2E/DX2 analytically  !
 ! A16   A(5,6,7)              119.6606         calculate D2E/DX2 analytically  !
 ! D1    D(6,1,2,3)              0.0            calculate D2E/DX2 analytically  !
 ! D2    D(6,1,2,11)           180.0            calculate D2E/DX2 analytically  !
 ! D3    D(8,1,2,3)            180.0            calculate D2E/DX2 analytically  !
 ! D4    D(8,1,2,11)             0.0            calculate D2E/DX2 analytically  !
 ! D5    D(2,1,6,5)              0.0            calculate D2E/DX2 analytically  !
 ! D6    D(2,1,6,7)            180.0            calculate D2E/DX2 analytically  !
 ! D7    D(8,1,6,5)            180.0            calculate D2E/DX2 analytically  !
 ! D8    D(8,1,6,7)              0.0            calculate D2E/DX2 analytically  !
 ! D9    D(1,2,3,4)              0.0            calculate D2E/DX2 analytically  !
 ! D10   D(1,2,3,9)            180.0            calculate D2E/DX2 analytically  !
 ! D11   D(11,2,3,4)           180.0            calculate D2E/DX2 analytically  !
 ! D12   D(11,2,3,9)             0.0            calculate D2E/DX2 analytically  !
 ! D13   D(2,3,4,5)              0.0            calculate D2E/DX2 analytically  !
 ! D14   D(9,3,4,5)            180.0            calculate D2E/DX2 analytically  !
 ! D15   D(3,4,5,6)              0.0            calculate D2E/DX2 analytically  !
 ! D16   D(3,4,5,10)           180.0            calculate D2E/DX2 analytically  !
 ! D17   D(4,5,6,1)              0.0            calculate D2E/DX2 analytically  !
 ! D18   D(4,5,6,7)            180.0            calculate D2E/DX2 analytically  !
 ! D19   D(10,5,6,1)           180.0            calculate D2E/DX2 analytically  !
 ! D20   D(10,5,6,7)             0.0            calculate D2E/DX2 analytically  !
 --------------------------------------------------------------------------------
 Trust Radius=3.00D-01 FncErr=1.00D-07 GrdErr=1.00D-07 EigMax=2.50D+02 EigMin=1.00D-04
 Number of steps in this run=      2 maximum allowed number of steps=      2.
 GradGradGradGradGradGradGradGradGradGradGradGradGradGradGradGradGradGrad

                          Input orientation:                          
 ---------------------------------------------------------------------
 Center     Atomic      Atomic             Coordinates (Angstroms)
 Number     Number       Type             X           Y           Z
 ---------------------------------------------------------------------
      1          6           0       -1.208039    1.089369    0.000000
      2          6           0        0.001970    1.771064    0.000000
      3          6           0        1.164600    1.006518    0.000000
      4          6           0        1.281108   -0.367456   -0.000000
      5          6           0        0.016948   -0.990035   -0.000000
      6          6           0       -1.196089   -0.301625   -0.000000
      7         17           0       -2.711323   -1.203597   -0.000000
      8         17           0       -2.701457    2.008392    0.000000
      9         17           0        2.680568    2.021850    0.000000
     10          1           0       -0.057974   -2.077221   -0.000000
     11          1           0        0.012794    2.854317    0.000000
 ---------------------------------------------------------------------
                    Distance matrix (angstroms):
                    1          2          3          4          5
     1  C    0.000000
     2  C    1.388823   0.000000
     3  C    2.374085   1.391488   0.000000
     4  C    2.884127   2.491879   1.378905   0.000000
     5  C    2.413403   2.761140   2.302896   1.409151   0.000000
     6  C    1.391045   2.394031   2.698906   2.478072   1.394765
     7  Cl   2.741816   4.026235   4.461770   4.079049   2.736617
     8  Cl   1.753540   2.713825   3.993764   4.637400   4.047258
     9  Cl   3.998848   2.690312   1.824570   2.768983   4.020736
    10  H    3.368967   3.848752   3.317248   2.171736   1.089764
    11  H    2.146036   1.083306   2.177387   3.462432   3.844354
                    6          7          8          9         10
     6  C    0.000000
     7  Cl   1.763374   0.000000
     8  Cl   2.757229   3.212004   0.000000
     9  Cl   4.519624   6.282993   5.382042   0.000000
    10  H    2.109039   2.793471   4.866234   4.929705   0.000000
    11  H    3.379551   4.887482   2.843017   2.794641   4.932045
                   11
    11  H    0.000000
 Stoichiometry    C6H2Cl3(1-)
 Framework group  CS[SG(C6H2Cl3)]
 Deg. of freedom    19
 Full point group                 CS      NOp   2
 Largest Abelian subgroup         CS      NOp   2
 Largest concise Abelian subgroup C1      NOp   1
                         Standard orientation:                         
 ---------------------------------------------------------------------
 Center     Atomic      Atomic             Coordinates (Angstroms)
 Number     Number       Type             X           Y           Z
 ---------------------------------------------------------------------
      1          6           0        0.000000    0.793276   -0.000000
      2          6           0       -1.190447    0.077969   -0.000000
      3          6           0       -1.100034   -1.310578   -0.000000
      4          6           0        0.037035   -2.090613    0.000000
      5          6           0        1.202833   -1.299020    0.000000
      6          6           0        1.203518    0.095744    0.000000
      7         17           0        2.736268    0.967619    0.000000
      8         17           0       -0.061319    2.545744   -0.000000
      9         17           0       -2.731708   -2.127092   -0.000000
     10          1           0        2.185115   -1.770941    0.000000
     11          1           0       -2.137645    0.603678   -0.000000
 ---------------------------------------------------------------------
 Rotational constants (GHZ):           1.8392111           0.5974177           0.4509416
 Standard basis: 6-311++G(d,p) (5D, 7F)
 There are   183 symmetry adapted cartesian basis functions of A'  symmetry.
 There are    62 symmetry adapted cartesian basis functions of A"  symmetry.
 There are   174 symmetry adapted basis functions of A'  symmetry.
 There are    62 symmetry adapted basis functions of A"  symmetry.
   236 basis functions,   393 primitive gaussians,   245 cartesian basis functions
    45 alpha electrons       45 beta electrons
       nuclear repulsion energy       608.3866010567 Hartrees.
 NAtoms=   11 NActive=   11 NUniq=   11 SFac= 1.00D+00 NAtFMM=   60 NAOKFM=F Big=F
 Integral buffers will be    131072 words long.
 Raffenetti 2 integral format.
 Two-electron integral symmetry is turned on.
 One-electron integrals computed using PRISM.
 NBasis=   236 RedAO= T EigKep=  1.37D-06  NBF=   174    62
 NBsUse=   236 1.00D-06 EigRej= -1.00D+00 NBFU=   174    62
 Initial guess from the checkpoint file:  "frequency_chks/1245tetrachlorobenzene_anion_product_Freq.chk"
 B after Tr=     0.000000    0.000000   -0.000000
         Rot=    1.000000    0.000000    0.000000   -0.000000 Ang=   0.00 deg.
 Initial guess orbital symmetries:
       Occupied  (A') (A') (A') (A') (A') (A') (A') (A') (A') (A')
                 (A') (A') (A') (A") (A') (A') (A") (A') (A') (A")
                 (A') (A') (A') (A') (A') (A') (A') (A') (A') (A')
                 (A') (A') (A") (A') (A') (A") (A") (A') (A') (A')
                 (A") (A') (A") (A") (A')
       Virtual   (A') (A') (A') (A') (A") (A') (A") (A') (A") (A')
                 (A") (A') (A') (A") (A') (A') (A') (A') (A") (A')
                 (A") (A') (A') (A") (A') (A") (A') (A') (A") (A')
                 (A") (A') (A') (A') (A') (A") (A') (A') (A') (A')
                 (A') (A') (A') (A') (A') (A') (A') (A') (A') (A')
                 (A') (A") (A') (A') (A") (A') (A") (A') (A') (A')
                 (A') (A") (A') (A") (A") (A') (A") (A") (A') (A')
                 (A') (A') (A") (A') (A') (A') (A") (A') (A') (A')
                 (A') (A') (A") (A') (A") (A') (A") (A') (A") (A')
                 (A") (A') (A') (A') (A') (A') (A') (A") (A') (A')
                 (A") (A') (A") (A') (A') (A') (A') (A") (A') (A")
                 (A") (A') (A') (A') (A') (A") (A') (A") (A') (A')
                 (A') (A") (A') (A") (A") (A') (A') (A") (A') (A')
                 (A") (A') (A") (A') (A') (A") (A") (A") (A') (A')
                 (A') (A') (A') (A') (A') (A') (A') (A') (A") (A')
                 (A') (A") (A') (A") (A") (A") (A') (A") (A') (A')
                 (A') (A') (A') (A') (A') (A') (A') (A') (A') (A')
                 (A') (A') (A') (A') (A') (A') (A') (A') (A') (A")
                 (A") (A") (A') (A') (A') (A') (A') (A') (A') (A')
                 (A')
 Keep R1 ints in memory in symmetry-blocked form, NReq=596869867.
 Requested convergence on RMS density matrix=1.00D-08 within 128 cycles.
 Requested convergence on MAX density matrix=1.00D-06.
 Requested convergence on             energy=1.00D-06.
 No special actions if energy rises.
 SCF Done:  E(RM062X) =  -1610.39273382     A.U. after    2 cycles
            NFock=  2  Conv=0.60D-08     -V/T= 2.0024
 DoSCS=F DFT=T ScalE2(SS,OS)=  1.000000  1.000000
 Range of M.O.s used for correlation:     1   236
 NBasis=   236 NAE=    45 NBE=    45 NFC=     0 NFV=     0
 NROrb=    236 NOA=    45 NOB=    45 NVA=   191 NVB=   191

 **** Warning!!: The largest alpha MO coefficient is  0.34675080D+03

 Symmetrizing basis deriv contribution to polar:
 IMax=3 JMax=2 DiffMx= 0.00D+00
 G2DrvN: will do    12 centers at a time, making    1 passes.
 Calling FoFCou, ICntrl=  3107 FMM=F I1Cent=   0 AccDes= 0.00D+00.
 End of G2Drv F.D. properties file   721 does not exist.
 End of G2Drv F.D. properties file   722 does not exist.
 End of G2Drv F.D. properties file   788 does not exist.
          IDoAtm=11111111111
          Differentiating once with respect to electric field.
                with respect to dipole field.
          Differentiating once with respect to nuclear coordinates.
 Keep R1 ints in memory in symmetry-blocked form, NReq=596875063.
          There are    36 degrees of freedom in the 1st order CPHF.  IDoFFX=6 NUNeed=     3.
     33 vectors produced by pass  0 Test12= 2.39D-14 2.78D-09 XBig12= 1.04D+02 3.73D+00.
 AX will form    33 AO Fock derivatives at one time.
     33 vectors produced by pass  1 Test12= 2.39D-14 2.78D-09 XBig12= 2.36D+01 1.24D+00.
     33 vectors produced by pass  2 Test12= 2.39D-14 2.78D-09 XBig12= 4.16D-01 1.08D-01.
     33 vectors produced by pass  3 Test12= 2.39D-14 2.78D-09 XBig12= 7.45D-03 9.95D-03.
     33 vectors produced by pass  4 Test12= 2.39D-14 2.78D-09 XBig12= 1.15D-04 1.28D-03.
     33 vectors produced by pass  5 Test12= 2.39D-14 2.78D-09 XBig12= 8.71D-07 1.06D-04.
     33 vectors produced by pass  6 Test12= 2.39D-14 2.78D-09 XBig12= 3.94D-09 8.05D-06.
     24 vectors produced by pass  7 Test12= 2.39D-14 2.78D-09 XBig12= 1.59D-11 4.88D-07.
      3 vectors produced by pass  8 Test12= 2.39D-14 2.78D-09 XBig12= 7.55D-14 3.04D-08.
 InvSVY:  IOpt=1 It=  1 EMax= 8.88D-15
 Solved reduced A of dimension   258 with    36 vectors.
 Isotropic polarizability for W=    0.000000      119.38 Bohr**3.
 End of Minotr F.D. properties file   721 does not exist.
 End of Minotr F.D. properties file   722 does not exist.
 End of Minotr F.D. properties file   788 does not exist.

 **********************************************************************

            Population analysis using the SCF Density.

 **********************************************************************

 Orbital symmetries:
       Occupied  (A') (A') (A') (A') (A') (A') (A') (A') (A') (A')
                 (A') (A') (A') (A") (A') (A') (A") (A') (A') (A")
                 (A') (A') (A') (A') (A') (A') (A') (A') (A') (A')
                 (A') (A') (A") (A') (A') (A") (A") (A') (A') (A')
                 (A") (A') (A") (A") (A')
       Virtual   (A') (A') (A') (A') (A") (A') (A") (A') (A") (A')
                 (A") (A') (A') (A") (A') (A') (A') (A') (A") (A')
                 (A") (A') (A') (A") (A') (A") (A') (A') (A") (A')
                 (A") (A') (A') (A') (A') (A") (A') (A') (A') (A')
                 (A') (A') (A') (A') (A') (A') (A') (A') (A') (A')
                 (A') (A") (A') (A') (A") (A') (A") (A') (A') (A')
                 (A') (A") (A') (A") (A") (A') (A") (A") (A') (A')
                 (A') (A') (A") (A') (A') (A') (A") (A') (A') (A')
                 (A') (A') (A") (A') (A") (A') (A") (A') (A") (A')
                 (A") (A') (A') (A') (A') (A') (A') (A") (A') (A')
                 (A") (A') (A") (A') (A') (A') (A') (A") (A') (A")
                 (A") (A') (A') (A') (A') (A") (A') (A") (A') (A')
                 (A') (A") (A') (A") (A") (A') (A') (A") (A') (A')
                 (A") (A') (A") (A') (A') (A") (A") (A") (A') (A')
                 (A') (A') (A') (A') (A') (A') (A') (A') (A") (A')
                 (A') (A") (A') (A") (A") (A") (A') (A") (A') (A')
                 (A') (A') (A') (A') (A') (A') (A') (A') (A') (A')
                 (A') (A') (A') (A') (A') (A') (A') (A') (A') (A")
                 (A") (A") (A') (A') (A') (A') (A') (A') (A') (A')
                 (A')
 The electronic state is 1-A'.
 Alpha  occ. eigenvalues -- -102.55802-102.55049-102.50965 -10.47480 -10.46947
 Alpha  occ. eigenvalues --  -10.44520 -10.41999 -10.40136 -10.34394  -9.70064
 Alpha  occ. eigenvalues --   -9.69311  -9.65234  -7.42565  -7.41917  -7.41912
 Alpha  occ. eigenvalues --   -7.41801  -7.41172  -7.41161  -7.37680  -7.37115
 Alpha  occ. eigenvalues --   -7.37101  -0.88146  -0.82514  -0.81301  -0.75754
 Alpha  occ. eigenvalues --   -0.68695  -0.65236  -0.55253  -0.50841  -0.43164
 Alpha  occ. eigenvalues --   -0.40142  -0.38245  -0.35233  -0.35133  -0.32909
 Alpha  occ. eigenvalues --   -0.28677  -0.28067  -0.27994  -0.26237  -0.24643
 Alpha  occ. eigenvalues --   -0.22860  -0.21916  -0.15871  -0.13979  -0.08666
 Alpha virt. eigenvalues --    0.10733   0.11489   0.12468   0.14436   0.14591
 Alpha virt. eigenvalues --    0.14964   0.16570   0.17598   0.17670   0.18512
 Alpha virt. eigenvalues --    0.18800   0.19668   0.20021   0.20295   0.20960
 Alpha virt. eigenvalues --    0.21038   0.22684   0.23226   0.23276   0.24193
 Alpha virt. eigenvalues --    0.24280   0.24936   0.25569   0.25689   0.26972
 Alpha virt. eigenvalues --    0.27464   0.27608   0.29517   0.29769   0.31152
 Alpha virt. eigenvalues --    0.31410   0.32037   0.32828   0.33733   0.35197
 Alpha virt. eigenvalues --    0.36169   0.36520   0.36999   0.37492   0.37725
 Alpha virt. eigenvalues --    0.38294   0.39865   0.41729   0.42276   0.42399
 Alpha virt. eigenvalues --    0.43639   0.46854   0.47895   0.50150   0.51018
 Alpha virt. eigenvalues --    0.57699   0.58159   0.58709   0.60934   0.61969
 Alpha virt. eigenvalues --    0.62015   0.63078   0.63500   0.65192   0.67275
 Alpha virt. eigenvalues --    0.69642   0.70791   0.73466   0.75603   0.76443
 Alpha virt. eigenvalues --    0.77135   0.78832   0.79726   0.81059   0.82781
 Alpha virt. eigenvalues --    0.83911   0.85747   0.86024   0.88728   0.90746
 Alpha virt. eigenvalues --    0.92825   0.96413   0.96548   1.01749   1.02613
 Alpha virt. eigenvalues --    1.03405   1.04553   1.05177   1.05192   1.05861
 Alpha virt. eigenvalues --    1.06726   1.07761   1.09890   1.10114   1.10809
 Alpha virt. eigenvalues --    1.11092   1.11653   1.12793   1.14716   1.15603
 Alpha virt. eigenvalues --    1.17231   1.18083   1.20208   1.21905   1.26623
 Alpha virt. eigenvalues --    1.28356   1.33006   1.34675   1.36727   1.41416
 Alpha virt. eigenvalues --    1.41875   1.44651   1.46442   1.48621   1.48823
 Alpha virt. eigenvalues --    1.53429   1.65761   1.67815   1.71614   1.73817
 Alpha virt. eigenvalues --    1.76364   1.81352   1.87303   1.89987   1.92866
 Alpha virt. eigenvalues --    1.96810   1.98056   2.04842   2.08628   2.11206
 Alpha virt. eigenvalues --    2.11584   2.17345   2.18412   2.19439   2.24738
 Alpha virt. eigenvalues --    2.27934   2.30476   2.40640   2.40858   2.41499
 Alpha virt. eigenvalues --    2.45456   2.47268   2.50700   2.51496   2.55157
 Alpha virt. eigenvalues --    2.58830   2.62108   2.65047   2.67010   2.69608
 Alpha virt. eigenvalues --    2.73729   2.77756   2.83990   2.85067   2.89206
 Alpha virt. eigenvalues --    2.90998   2.98622   2.98926   2.99863   3.08022
 Alpha virt. eigenvalues --    3.11091   3.15998   3.27970   3.30990   3.35577
 Alpha virt. eigenvalues --    3.39892   3.46108   3.55970   3.68623   3.70498
 Alpha virt. eigenvalues --    3.95078   4.03228   4.14898   4.30058   4.91584
 Alpha virt. eigenvalues --   10.06042  10.11799  10.12291  23.61981  24.05863
 Alpha virt. eigenvalues --   24.14353  24.25725  24.28356  24.36187  26.01612
 Alpha virt. eigenvalues --   26.08581  26.10378  26.31050  26.33322  26.42593
 Alpha virt. eigenvalues --   26.72412  26.76849  26.99579 216.15754 216.22243
 Alpha virt. eigenvalues --  216.22892
          Condensed to atoms (all electrons):
               1          2          3          4          5          6
     1  C   38.090921 -19.255850   4.878336  -1.392279  -3.659354 -11.725441
     2  C  -19.255850  60.098496 -15.495078  -7.528640 -15.084622   1.307842
     3  C    4.878336 -15.495078  22.685983   2.586635   2.026089  -7.750884
     4  C   -1.392279  -7.528640   2.586635  13.253277   0.191531  -1.042093
     5  C   -3.659354 -15.084622   2.026089   0.191531  33.379998  -9.162829
     6  C  -11.725441   1.307842  -7.750884  -1.042093  -9.162829  35.010070
     7  Cl   0.566003   0.948226  -0.096051   0.434591  -1.346485  -1.214417
     8  Cl  -1.189627  -0.490401  -0.298832  -0.081273   1.180082   0.187164
     9  Cl  -0.549462   2.252150  -2.156366  -0.588028  -0.159915   0.088879
    10  H    0.227087  -0.152394  -0.111855   0.098328   0.451613  -0.399470
    11  H   -0.403345   1.102889  -0.272905  -0.073323  -0.149799   0.002572
               7          8          9         10         11
     1  C    0.566003  -1.189627  -0.549462   0.227087  -0.403345
     2  C    0.948226  -0.490401   2.252150  -0.152394   1.102889
     3  C   -0.096051  -0.298832  -2.156366  -0.111855  -0.272905
     4  C    0.434591  -0.081273  -0.588028   0.098328  -0.073323
     5  C   -1.346485   1.180082  -0.159915   0.451613  -0.149799
     6  C   -1.214417   0.187164   0.088879  -0.399470   0.002572
     7  Cl  17.699176  -0.292212  -0.016219   0.032250  -0.002731
     8  Cl  -0.292212  17.674360  -0.004828  -0.004319   0.007782
     9  Cl  -0.016219  -0.004828  17.847618   0.004772   0.079787
    10  H    0.032250  -0.004319   0.004772   0.695496   0.000099
    11  H   -0.002731   0.007782   0.079787   0.000099   0.557845
 Mulliken charges:
               1
     1  C    0.413012
     2  C   -1.702618
     3  C    0.004929
     4  C    0.141275
     5  C   -1.666308
     6  C    0.698606
     7  Cl   0.287870
     8  Cl   0.312102
     9  Cl   0.201611
    10  H    0.158392
    11  H    0.151129
 Sum of Mulliken charges =  -1.00000
 Mulliken charges with hydrogens summed into heavy atoms:
               1
     1  C    0.413012
     2  C   -1.551489
     3  C    0.004929
     4  C    0.141275
     5  C   -1.507916
     6  C    0.698606
     7  Cl   0.287870
     8  Cl   0.312102
     9  Cl   0.201611
 APT charges:
               1
     1  C    0.223416
     2  C   -0.175609
     3  C    0.668786
     4  C   -0.646761
     5  C   -0.014250
     6  C    0.367151
     7  Cl  -0.442766
     8  Cl  -0.361180
     9  Cl  -0.625481
    10  H   -0.026423
    11  H    0.033118
 Sum of APT charges =  -1.00000
 APT charges with hydrogens summed into heavy atoms:
               1
     1  C    0.223416
     2  C   -0.142491
     3  C    0.668786
     4  C   -0.646761
     5  C   -0.040673
     6  C    0.367151
     7  Cl  -0.442766
     8  Cl  -0.361180
     9  Cl  -0.625481
 Electronic spatial extent (au):  <R**2>=           2181.4822
 Charge=             -1.0000 electrons
 Dipole moment (field-independent basis, Debye):
    X=              0.9010    Y=              5.6309    Z=              0.0000  Tot=              5.7025
 Quadrupole moment (field-independent basis, Debye-Ang):
   XX=            -91.2651   YY=           -104.5548   ZZ=            -78.7138
   XY=            -10.1265   XZ=             -0.0000   YZ=              0.0000
 Traceless Quadrupole moment (field-independent basis, Debye-Ang):
   XX=              0.2462   YY=            -13.0436   ZZ=             12.7974
   XY=            -10.1265   XZ=             -0.0000   YZ=              0.0000
 Octapole moment (field-independent basis, Debye-Ang**2):
  XXX=             13.3767  YYY=             76.6816  ZZZ=              0.0000  XYY=             15.1075
  XXY=             21.8680  XXZ=              0.0000  XZZ=              0.7643  YZZ=              9.1546
  YYZ=              0.0000  XYZ=              0.0000
 Hexadecapole moment (field-independent basis, Debye-Ang**3):
 XXXX=          -1619.1144 YYYY=          -1589.8986 ZZZZ=            -98.9866 XXXY=           -382.4835
 XXXZ=             -0.0000 YYYX=           -352.0949 YYYZ=             -0.0000 ZZZX=             -0.0000
 ZZZY=             -0.0000 XXYY=           -522.8910 XXZZ=           -279.1383 YYZZ=           -259.7798
 XXYZ=             -0.0000 YYXZ=             -0.0000 ZZXY=           -108.2988
 N-N= 6.083866010567D+02 E-N=-5.046566136442D+03  KE= 1.606604882183D+03
 Symmetry A'   KE= 1.462617382345D+03
 Symmetry A"   KE= 1.439874998381D+02
  Exact polarizability: 146.131  19.146 144.063  -0.000  -0.000  67.941
 Approx polarizability: 174.986  13.757 169.723   0.000  -0.000  86.736
 Calling FoFJK, ICntrl=    100127 FMM=F ISym2X=1 I1Cent= 0 IOpClX= 0 NMat=1 NMatS=1 NMatT=0.
 Full mass-weighted force constant matrix:
 Low frequencies ---  -11.6121  -10.5902   -0.0019   -0.0019    0.0011    8.3474
 Low frequencies ---   80.8716  172.1995  195.7446
 Diagonal vibrational polarizability:
       20.3446691       6.2034995       9.5659202
 Harmonic frequencies (cm**-1), IR intensities (KM/Mole), Raman scattering
 activities (A**4/AMU), depolarization ratios for plane and unpolarized
 incident light, reduced masses (AMU), force constants (mDyne/A),
 and normal coordinates:
                      1                      2                      3
                     A"                     A"                     A'
 Frequencies --     80.8406               172.1986               195.7445
 Red. masses --     13.6586                 7.1790                28.2032
 Frc consts  --      0.0526                 0.1254                 0.6367
 IR Inten    --      0.8805                 3.5203                 0.1912
  Atom  AN      X      Y      Z        X      Y      Z        X      Y      Z
     1   6     0.00  -0.00  -0.15     0.00  -0.00   0.31    -0.14   0.02   0.00
     2   6     0.00  -0.00  -0.18     0.00  -0.00   0.48    -0.21   0.09   0.00
     3   6     0.00  -0.00  -0.19     0.00  -0.00   0.15    -0.18   0.06   0.00
     4   6     0.00  -0.00  -0.43     0.00  -0.00  -0.21    -0.16   0.08  -0.00
     5   6     0.00  -0.00  -0.42     0.00  -0.00  -0.14    -0.13   0.01  -0.00
     6   6     0.00  -0.00  -0.16     0.00  -0.00   0.08    -0.17  -0.01  -0.00
     7  17    -0.00   0.00   0.34    -0.00   0.00   0.04    -0.33   0.22   0.00
     8  17     0.00  -0.00  -0.10    -0.00  -0.00  -0.19     0.66   0.06  -0.00
     9  17    -0.00   0.00   0.30    -0.00   0.00  -0.08     0.01  -0.37  -0.00
    10   1     0.00  -0.00  -0.54     0.00  -0.00  -0.31    -0.14  -0.01  -0.00
    11   1     0.00   0.00  -0.13     0.00  -0.00   0.66    -0.20   0.11   0.00
                      4                      5                      6
                     A'                     A"                     A'
 Frequencies --    210.6428               302.9954               311.5151
 Red. masses --     21.5752                 9.9438                28.2468
 Frc consts  --      0.5640                 0.5379                 1.6150
 IR Inten    --      0.4930                 2.1446                 6.3400
  Atom  AN      X      Y      Z        X      Y      Z        X      Y      Z
     1   6     0.12  -0.26  -0.00    -0.00  -0.00   0.30    -0.12   0.04   0.00
     2   6     0.14  -0.21  -0.00    -0.00  -0.00  -0.18    -0.01  -0.00  -0.00
     3   6     0.13  -0.19  -0.00    -0.00  -0.00  -0.34     0.18   0.02  -0.00
     4   6     0.12  -0.20   0.00     0.00   0.00  -0.38     0.09  -0.21  -0.00
     5   6     0.18  -0.20   0.00     0.00   0.00   0.24    -0.05  -0.11   0.00
     6   6     0.14  -0.19  -0.00     0.00   0.00   0.55    -0.27  -0.13   0.00
     7  17    -0.19   0.43  -0.00     0.00   0.00  -0.11    -0.50  -0.26   0.00
     8  17     0.09  -0.33   0.00     0.00  -0.00  -0.04     0.02   0.06  -0.00
     9  17    -0.19   0.34  -0.00    -0.00  -0.00   0.09     0.54   0.35   0.00
    10   1     0.17  -0.22   0.00     0.00   0.00   0.29     0.04   0.08   0.00
    11   1     0.15  -0.20  -0.00    -0.00  -0.00  -0.39    -0.11  -0.19  -0.00
                      7                      8                      9
                     A'                     A"                     A'
 Frequencies --    395.9193               420.5378               456.4993
 Red. masses --     11.3368                 2.8753                 8.5918
 Frc consts  --      1.0470                 0.2996                 1.0549
 IR Inten    --     10.3122                 8.4652                 3.0965
  Atom  AN      X      Y      Z        X      Y      Z        X      Y      Z
     1   6    -0.05   0.09   0.00    -0.00  -0.00  -0.19     0.27  -0.01   0.00
     2   6     0.13  -0.26  -0.00    -0.00  -0.00   0.17     0.20   0.08  -0.00
     3   6     0.26  -0.31   0.00    -0.00  -0.00  -0.12    -0.09   0.04  -0.00
     4   6     0.29  -0.26   0.00     0.00  -0.00  -0.16    -0.25  -0.21  -0.00
     5   6     0.13   0.05  -0.00    -0.00   0.00   0.22    -0.11  -0.36   0.00
     6   6    -0.05   0.06  -0.00    -0.00   0.00  -0.12     0.15  -0.27  -0.00
     7  17    -0.08  -0.08   0.00     0.00   0.00   0.01    -0.02   0.10  -0.00
     8  17     0.05   0.31   0.00     0.00   0.00   0.01    -0.08   0.22  -0.00
     9  17    -0.23  -0.01   0.00    -0.00   0.00   0.02     0.04  -0.06   0.00
    10   1     0.24   0.28   0.00     0.00   0.00   0.70    -0.20  -0.54   0.00
    11   1    -0.01  -0.52   0.00    -0.00  -0.00   0.59     0.28   0.22   0.00
                     10                     11                     12
                     A'                     A"                     A'
 Frequencies --    519.0132               561.4049               665.7365
 Red. masses --     11.1504                 9.6078                 7.8873
 Frc consts  --      1.7697                 1.7841                 2.0596
 IR Inten    --     73.0107                 1.5479                29.5665
  Atom  AN      X      Y      Z        X      Y      Z        X      Y      Z
     1   6    -0.28  -0.02   0.00     0.00  -0.00  -0.47     0.21   0.20   0.00
     2   6    -0.19  -0.24   0.00     0.00   0.00  -0.03     0.40  -0.04  -0.00
     3   6    -0.16  -0.27   0.00    -0.00   0.00   0.56    -0.03  -0.07   0.00
     4   6    -0.15  -0.35  -0.00    -0.00   0.00  -0.33    -0.10  -0.17  -0.00
     5   6    -0.30   0.00  -0.00     0.00  -0.00   0.04    -0.36   0.27   0.00
     6   6    -0.19   0.06   0.00     0.00  -0.00   0.36     0.06   0.27  -0.00
     7  17     0.25   0.13   0.00    -0.00  -0.00  -0.02    -0.07  -0.02  -0.00
     8  17     0.06   0.05  -0.00    -0.00   0.00   0.03     0.01  -0.11  -0.00
     9  17     0.14   0.10  -0.00    -0.00  -0.00  -0.03    -0.00  -0.03  -0.00
    10   1    -0.27   0.07  -0.00     0.00  -0.00  -0.36    -0.33   0.33   0.00
    11   1    -0.28  -0.41  -0.00     0.00   0.00  -0.31     0.44   0.04   0.00
                     13                     14                     15
                     A"                     A'                     A"
 Frequencies --    728.2870               771.1729               876.7951
 Red. masses --      3.7892                11.8153                 1.5459
 Frc consts  --      1.1842                 4.1400                 0.7002
 IR Inten    --      0.0834                58.3505                17.5746
  Atom  AN      X      Y      Z        X      Y      Z        X      Y      Z
     1   6    -0.00   0.00  -0.23    -0.10   0.34  -0.00    -0.00   0.00   0.07
     2   6    -0.00   0.00   0.10    -0.04   0.36   0.00    -0.00   0.00  -0.19
     3   6     0.00   0.00  -0.23     0.49   0.31  -0.00     0.00   0.00   0.09
     4   6    -0.00  -0.00   0.20     0.05  -0.39   0.00     0.00  -0.00  -0.02
     5   6    -0.00  -0.00  -0.15    -0.07  -0.16   0.00    -0.00  -0.00  -0.02
     6   6    -0.00  -0.00   0.28    -0.32  -0.09  -0.00    -0.00  -0.00   0.00
     7  17     0.00   0.00  -0.01     0.08   0.05   0.00     0.00   0.00  -0.00
     8  17     0.00  -0.00   0.00    -0.01  -0.12   0.00    -0.00  -0.00  -0.00
     9  17     0.00  -0.00   0.00    -0.07  -0.06   0.00    -0.00  -0.00  -0.00
    10   1    -0.00   0.00  -0.44     0.08   0.14  -0.00     0.00   0.00   0.17
    11   1    -0.00  -0.00   0.74    -0.23  -0.02  -0.00    -0.00   0.00   0.96
                     16                     17                     18
                     A"                     A'                     A'
 Frequencies --    913.0207               988.3047              1030.5655
 Red. masses --      1.4053                 9.0549                 3.8278
 Frc consts  --      0.6902                 5.2109                 2.3952
 IR Inten    --      2.3794                67.7481               167.9163
  Atom  AN      X      Y      Z        X      Y      Z        X      Y      Z
     1   6     0.00  -0.00  -0.01     0.05  -0.35   0.00    -0.02  -0.15   0.00
     2   6    -0.00   0.00   0.02    -0.35   0.21  -0.00     0.01  -0.13  -0.00
     3   6     0.00   0.00   0.02     0.10   0.09   0.00     0.32   0.10   0.00
     4   6    -0.00  -0.00   0.02     0.05  -0.38  -0.00    -0.10   0.20  -0.00
     5   6    -0.00   0.00  -0.18    -0.09   0.16   0.00    -0.23   0.01   0.00
     6   6     0.00  -0.00   0.06     0.42   0.20  -0.00     0.06  -0.03   0.00
     7  17     0.00   0.00  -0.00    -0.04  -0.03  -0.00     0.00   0.01  -0.00
     8  17    -0.00  -0.00   0.00    -0.00   0.04   0.00     0.00   0.02   0.00
     9  17     0.00   0.00  -0.00    -0.01  -0.00  -0.00    -0.00  -0.00  -0.00
    10   1    -0.00   0.00   0.96    -0.10   0.11   0.00    -0.38  -0.30  -0.00
    11   1    -0.00  -0.00  -0.18    -0.21   0.46   0.00    -0.26  -0.67   0.00
                     19                     20                     21
                     A'                     A'                     A'
 Frequencies --   1150.8421              1263.3108              1273.3521
 Red. masses --      2.2957                 3.1272                 1.8498
 Frc consts  --      1.7914                 2.9406                 1.7672
 IR Inten    --     25.7293                33.3527                74.5151
  Atom  AN      X      Y      Z        X      Y      Z        X      Y      Z
     1   6     0.01   0.20   0.00     0.12   0.05  -0.00     0.18  -0.04   0.00
     2   6    -0.06  -0.03  -0.00    -0.11  -0.06   0.00    -0.04  -0.04  -0.00
     3   6    -0.06   0.01   0.00    -0.03  -0.00  -0.00    -0.10   0.12   0.00
     4   6    -0.05  -0.03  -0.00     0.29   0.06   0.00     0.09  -0.01  -0.00
     5   6     0.09  -0.09  -0.00    -0.17  -0.16  -0.00    -0.06  -0.03   0.00
     6   6     0.16   0.13   0.00    -0.07   0.12   0.00    -0.06  -0.02  -0.00
     7  17    -0.02  -0.01  -0.00     0.00   0.00  -0.00     0.00   0.00   0.00
     8  17     0.00  -0.02   0.00    -0.00  -0.00  -0.00    -0.00   0.00   0.00
     9  17     0.00   0.00  -0.00    -0.01   0.00  -0.00    -0.00  -0.00   0.00
    10   1    -0.08  -0.46   0.00    -0.40  -0.62   0.00     0.29   0.67   0.00
    11   1    -0.44  -0.69   0.00     0.18   0.49  -0.00    -0.32  -0.54   0.00
                     22                     23                     24
                     A'                     A'                     A'
 Frequencies --   1323.6277              1414.4759              1556.3232
 Red. masses --      6.8856                 2.2607                 6.8377
 Frc consts  --      7.1076                 2.6649                 9.7579
 IR Inten    --     15.3325                90.5325                21.2589
  Atom  AN      X      Y      Z        X      Y      Z        X      Y      Z
     1   6    -0.10  -0.18  -0.00     0.00   0.11   0.00    -0.25  -0.20   0.00
     2   6     0.13  -0.27   0.00    -0.11  -0.05   0.00     0.27   0.39   0.00
     3   6    -0.01   0.34  -0.00     0.11  -0.11  -0.00    -0.08  -0.17  -0.00
     4   6    -0.16  -0.10   0.00    -0.09   0.09   0.00     0.15   0.09  -0.00
     5   6     0.17  -0.22  -0.00    -0.07  -0.16   0.00    -0.13  -0.28   0.00
     6   6    -0.13   0.40   0.00     0.12   0.04  -0.00     0.04   0.20  -0.00
     7  17     0.00  -0.01  -0.00    -0.01  -0.00   0.00     0.00  -0.00   0.00
     8  17     0.01   0.01  -0.00     0.00  -0.01  -0.00     0.00   0.00   0.00
     9  17    -0.00  -0.01  -0.00     0.00   0.00  -0.00    -0.00  -0.00   0.00
    10   1     0.32   0.05   0.00     0.39   0.73  -0.00     0.17   0.26   0.00
    11   1     0.50   0.33  -0.00     0.14   0.42   0.00    -0.24  -0.57  -0.00
                     25                     26                     27
                     A'                     A'                     A'
 Frequencies --   1589.0329              3122.7830              3213.9444
 Red. masses --      9.1012                 1.0873                 1.0921
 Frc consts  --     13.5399                 6.2474                 6.6467
 IR Inten    --     18.9312                38.9781                 5.6654
  Atom  AN      X      Y      Z        X      Y      Z        X      Y      Z
     1   6     0.44  -0.16   0.00     0.00  -0.00  -0.00     0.00   0.00  -0.00
     2   6    -0.13   0.20  -0.00    -0.00   0.00   0.00    -0.08   0.04   0.00
     3   6     0.17  -0.34   0.00     0.00   0.00  -0.00    -0.00  -0.00  -0.00
     4   6    -0.28   0.05   0.00     0.00  -0.00  -0.00     0.00   0.00  -0.00
     5   6     0.17  -0.01  -0.00    -0.07   0.04   0.00     0.00  -0.00   0.00
     6   6    -0.36   0.27  -0.00    -0.00  -0.00  -0.00     0.00  -0.00  -0.00
     7  17     0.01  -0.00  -0.00     0.00   0.00  -0.00     0.00   0.00  -0.00
     8  17    -0.01   0.00  -0.00    -0.00   0.00   0.00    -0.00  -0.00  -0.00
     9  17     0.01   0.01  -0.00    -0.00  -0.00   0.00     0.00   0.00  -0.00
    10   1    -0.00  -0.35   0.00     0.89  -0.45  -0.00    -0.01   0.01   0.00
    11   1    -0.35  -0.14   0.00     0.01  -0.01  -0.00     0.87  -0.48  -0.00

 -------------------
 - Thermochemistry -
 -------------------
 Temperature   298.150 Kelvin.  Pressure   1.00000 Atm.
 Atom     1 has atomic number  6 and mass  12.00000
 Atom     2 has atomic number  6 and mass  12.00000
 Atom     3 has atomic number  6 and mass  12.00000
 Atom     4 has atomic number  6 and mass  12.00000
 Atom     5 has atomic number  6 and mass  12.00000
 Atom     6 has atomic number  6 and mass  12.00000
 Atom     7 has atomic number 17 and mass  34.96885
 Atom     8 has atomic number 17 and mass  34.96885
 Atom     9 has atomic number 17 and mass  34.96885
 Atom    10 has atomic number  1 and mass   1.00783
 Atom    11 has atomic number  1 and mass   1.00783
 Molecular mass:   178.92221 amu.
 Principal axes and moments of inertia in atomic units:
                           1         2         3
     Eigenvalues --   981.258323020.903274002.16159
           X            0.75296  -0.65807   0.00000
           Y            0.65807   0.75296   0.00000
           Z           -0.00000   0.00000   1.00000
 This molecule is an asymmetric top.
 Rotational symmetry number  1.
 Warning -- assumption of classical behavior for rotation
           may cause significant error
 Rotational temperatures (Kelvin)      0.08827     0.02867     0.02164
 Rotational constants (GHZ):           1.83921     0.59742     0.45094
 Zero-point vibrational energy     152577.0 (Joules/Mol)
                                   36.46678 (Kcal/Mol)
 Warning -- explicit consideration of  11 degrees of freedom as
           vibrations may cause significant error
 Vibrational temperatures:    116.31   247.76   281.63   303.07   435.94
          (Kelvin)            448.20   569.64   605.06   656.80   746.74
                              807.74   957.85  1047.84  1109.55  1261.51
                             1313.63  1421.95  1482.75  1655.81  1817.62
                             1832.07  1904.41  2035.12  2239.20  2286.26
                             4492.99  4624.15
 
 Zero-point correction=                           0.058114 (Hartree/Particle)
 Thermal correction to Energy=                    0.066080
 Thermal correction to Enthalpy=                  0.067024
 Thermal correction to Gibbs Free Energy=         0.023872
 Sum of electronic and zero-point Energies=          -1610.334620
 Sum of electronic and thermal Energies=             -1610.326654
 Sum of electronic and thermal Enthalpies=           -1610.325709
 Sum of electronic and thermal Free Energies=        -1610.368862
 
                     E (Thermal)             CV                S
                      KCal/Mol        Cal/Mol-Kelvin    Cal/Mol-Kelvin
 Total                   41.466             28.408             90.822
 Electronic               0.000              0.000              0.000
 Translational            0.889              2.981             41.452
 Rotational               0.889              2.981             30.851
 Vibrational             39.689             22.446             18.519
 Vibration     1          0.600              1.962              3.870
 Vibration     2          0.626              1.877              2.411
 Vibration     3          0.636              1.846              2.173
 Vibration     4          0.643              1.825              2.038
 Vibration     5          0.694              1.668              1.400
 Vibration     6          0.700              1.652              1.354
 Vibration     7          0.763              1.479              0.978
 Vibration     8          0.783              1.426              0.890
 Vibration     9          0.815              1.347              0.776
 Vibration    10          0.874              1.208              0.612
 Vibration    11          0.917              1.115              0.521
                       Q            Log10(Q)             Ln(Q)
 Total Bot       0.104645D-10        -10.980280        -25.283028
 Total V=0       0.562419D+16         15.750060         36.265853
 Vib (Bot)       0.902230D-25        -25.044683        -57.667513
 Vib (Bot)    1  0.254719D+01          0.406061          0.934990
 Vib (Bot)    2  0.116947D+01          0.067988          0.156547
 Vib (Bot)    3  0.102029D+01          0.008724          0.020088
 Vib (Bot)    4  0.942661D+00         -0.025644         -0.059049
 Vib (Bot)    5  0.626593D+00         -0.203015         -0.467459
 Vib (Bot)    6  0.606475D+00         -0.217187         -0.500092
 Vib (Bot)    7  0.451523D+00         -0.345320         -0.795128
 Vib (Bot)    8  0.417363D+00         -0.379486         -0.873799
 Vib (Bot)    9  0.373668D+00         -0.427514         -0.984387
 Vib (Bot)   10  0.311282D+00         -0.506846         -1.167055
 Vib (Bot)   11  0.276466D+00         -0.558358         -1.285667
 Vib (V=0)       0.484905D+02          1.685657          3.881368
 Vib (V=0)    1  0.309580D+01          0.490773          1.130046
 Vib (V=0)    2  0.177187D+01          0.248432          0.572035
 Vib (V=0)    3  0.163622D+01          0.213841          0.492388
 Vib (V=0)    4  0.156706D+01          0.195085          0.449199
 Vib (V=0)    5  0.130163D+01          0.114489          0.263621
 Vib (V=0)    6  0.128601D+01          0.109244          0.251545
 Vib (V=0)    7  0.117370D+01          0.069558          0.160162
 Vib (V=0)    8  0.115130D+01          0.061189          0.140892
 Vib (V=0)    9  0.112420D+01          0.050844          0.117073
 Vib (V=0)   10  0.108898D+01          0.037020          0.085241
 Vib (V=0)   11  0.107134D+01          0.029929          0.068914
 Electronic      0.100000D+01          0.000000          0.000000
 Translational   0.940698D+08          7.973450         18.359548
 Rotational      0.123297D+07          6.090953         14.024938
 ***** Axes restored to original set *****
 -------------------------------------------------------------------
 Center     Atomic                   Forces (Hartrees/Bohr)
 Number     Number              X              Y              Z
 -------------------------------------------------------------------
      1        6           0.000100949    0.000062088    0.000000000
      2        6          -0.000072577    0.000011707   -0.000000000
      3        6           0.000159142   -0.000187407   -0.000000000
      4        6          -0.000163168    0.000138692    0.000000000
      5        6           0.000082368   -0.000005130    0.000000000
      6        6           0.000078215   -0.000020076    0.000000000
      7       17          -0.000046752   -0.000047073   -0.000000000
      8       17          -0.000014534    0.000036034    0.000000000
      9       17          -0.000078078   -0.000005889   -0.000000000
     10        1          -0.000012767   -0.000005377   -0.000000000
     11        1          -0.000032798    0.000022431    0.000000000
 -------------------------------------------------------------------
 Cartesian Forces:  Max     0.000187407 RMS     0.000068069
 FormGI is forming the generalized inverse of G from B-inverse, IUseBI=4.

 GradGradGradGradGradGradGradGradGradGradGradGradGradGradGradGradGradGrad
 Berny optimization.
 Internal  Forces:  Max     0.000136183 RMS     0.000039795
 Search for a local minimum.
 Step number   1 out of a maximum of    2
 All quantities printed in internal units (Hartrees-Bohrs-Radians)
 Second derivative matrix not updated -- analytic derivatives used.
 ITU=  0
     Eigenvalues ---    0.01162   0.01737   0.02170   0.02540   0.02873
     Eigenvalues ---    0.02973   0.03350   0.04186   0.10591   0.10987
     Eigenvalues ---    0.12068   0.13975   0.16625   0.18520   0.19184
     Eigenvalues ---    0.21473   0.23472   0.24754   0.27300   0.30852
     Eigenvalues ---    0.34367   0.36560   0.41045   0.42767   0.45987
     Eigenvalues ---    0.48237   0.51848
 Angle between quadratic step and forces=  23.95 degrees.
 Linear search not attempted -- first point.
 Iteration  1 RMS(Cart)=  0.00018037 RMS(Int)=  0.00000003
 Iteration  2 RMS(Cart)=  0.00000004 RMS(Int)=  0.00000001
 ClnCor:  largest displacement from symmetrization is 1.51D-13 for atom     8.
 Variable       Old X    -DE/DX   Delta X   Delta X   Delta X     New X
                                 (Linear)    (Quad)   (Total)
    R1        2.62450  -0.00009   0.00000  -0.00024  -0.00024   2.62426
    R2        2.62869   0.00007   0.00000   0.00018   0.00018   2.62887
    R3        3.31371   0.00003   0.00000   0.00018   0.00018   3.31389
    R4        2.62953   0.00005   0.00000   0.00024   0.00024   2.62977
    R5        2.04715   0.00002   0.00000   0.00006   0.00006   2.04721
    R6        2.60575  -0.00014   0.00000  -0.00047  -0.00047   2.60528
    R7        3.44794  -0.00007   0.00000  -0.00031  -0.00031   3.44763
    R8        2.66291  -0.00009   0.00000  -0.00023  -0.00023   2.66268
    R9        2.63572  -0.00002   0.00000  -0.00010  -0.00010   2.63562
   R10        2.05936   0.00001   0.00000   0.00002   0.00002   2.05937
   R11        3.33229   0.00006   0.00000   0.00032   0.00032   3.33262
    A1        2.07526   0.00000   0.00000   0.00010   0.00010   2.07536
    A2        2.07688  -0.00004   0.00000  -0.00016  -0.00016   2.07672
    A3        2.13104   0.00004   0.00000   0.00006   0.00006   2.13110
    A4        2.04684  -0.00002   0.00000  -0.00009  -0.00009   2.04674
    A5        2.09385  -0.00002   0.00000  -0.00023  -0.00023   2.09362
    A6        2.14250   0.00004   0.00000   0.00032   0.00032   2.14282
    A7        2.23709  -0.00001   0.00000  -0.00018  -0.00018   2.23691
    A8        1.96975  -0.00006   0.00000  -0.00026  -0.00026   1.96949
    A9        2.07634   0.00007   0.00000   0.00044   0.00044   2.07678
   A10        1.94382   0.00007   0.00000   0.00045   0.00045   1.94427
   A11        2.16779  -0.00003   0.00000  -0.00028  -0.00028   2.16751
   A12        2.09722   0.00003   0.00000   0.00028   0.00028   2.09750
   A13        2.01818   0.00000   0.00000   0.00000   0.00000   2.01818
   A14        2.09557  -0.00001   0.00000   0.00001   0.00001   2.09558
   A15        2.09914   0.00003   0.00000   0.00004   0.00004   2.09918
   A16        2.08847  -0.00002   0.00000  -0.00004  -0.00004   2.08843
    D1        0.00000   0.00000   0.00000   0.00000  -0.00000   0.00000
    D2        3.14159  -0.00000   0.00000  -0.00000   0.00000   3.14159
    D3        3.14159   0.00000   0.00000   0.00000   0.00000   3.14159
    D4       -0.00000   0.00000   0.00000   0.00000   0.00000   0.00000
    D5       -0.00000  -0.00000   0.00000  -0.00000   0.00000   0.00000
    D6        3.14159  -0.00000   0.00000   0.00000   0.00000   3.14159
    D7        3.14159  -0.00000   0.00000  -0.00000   0.00000   3.14159
    D8       -0.00000  -0.00000   0.00000   0.00000   0.00000   0.00000
    D9       -0.00000   0.00000   0.00000  -0.00000   0.00000   0.00000
   D10        3.14159   0.00000   0.00000  -0.00000   0.00000   3.14159
   D11        3.14159   0.00000   0.00000  -0.00000   0.00000   3.14159
   D12        0.00000  -0.00000   0.00000  -0.00000  -0.00000   0.00000
   D13        0.00000  -0.00000   0.00000   0.00000  -0.00000   0.00000
   D14        3.14159  -0.00000   0.00000   0.00000   0.00000   3.14159
   D15       -0.00000   0.00000   0.00000  -0.00000   0.00000   0.00000
   D16        3.14159   0.00000   0.00000   0.00000   0.00000   3.14159
   D17        0.00000   0.00000   0.00000  -0.00000  -0.00000   0.00000
   D18        3.14159   0.00000   0.00000  -0.00000   0.00000   3.14159
   D19        3.14159   0.00000   0.00000  -0.00000   0.00000   3.14159
   D20       -0.00000   0.00000   0.00000  -0.00000   0.00000   0.00000
         Item               Value     Threshold  Converged?
 Maximum Force            0.000136     0.000450     YES
 RMS     Force            0.000040     0.000300     YES
 Maximum Displacement     0.000480     0.001800     YES
 RMS     Displacement     0.000180     0.001200     YES
 Predicted change in Energy=-1.538505D-07
 Optimization completed.
    -- Stationary point found.
                           ----------------------------
                           !   Optimized Parameters   !
                           ! (Angstroms and Degrees)  !
 --------------------------                            --------------------------
 ! Name  Definition              Value          Derivative Info.                !
 --------------------------------------------------------------------------------
 ! R1    R(1,2)                  1.3888         -DE/DX =   -0.0001              !
 ! R2    R(1,6)                  1.391          -DE/DX =    0.0001              !
 ! R3    R(1,8)                  1.7535         -DE/DX =    0.0                 !
 ! R4    R(2,3)                  1.3915         -DE/DX =    0.0                 !
 ! R5    R(2,11)                 1.0833         -DE/DX =    0.0                 !
 ! R6    R(3,4)                  1.3789         -DE/DX =   -0.0001              !
 ! R7    R(3,9)                  1.8246         -DE/DX =   -0.0001              !
 ! R8    R(4,5)                  1.4092         -DE/DX =   -0.0001              !
 ! R9    R(5,6)                  1.3948         -DE/DX =    0.0                 !
 ! R10   R(5,10)                 1.0898         -DE/DX =    0.0                 !
 ! R11   R(6,7)                  1.7634         -DE/DX =    0.0001              !
 ! A1    A(2,1,6)              118.9039         -DE/DX =    0.0                 !
 ! A2    A(2,1,8)              118.9966         -DE/DX =    0.0                 !
 ! A3    A(6,1,8)              122.0996         -DE/DX =    0.0                 !
 ! A4    A(1,2,3)              117.275          -DE/DX =    0.0                 !
 ! A5    A(1,2,11)             119.9685         -DE/DX =    0.0                 !
 ! A6    A(3,2,11)             122.7565         -DE/DX =    0.0                 !
 ! A7    A(2,3,4)              128.1758         -DE/DX =    0.0                 !
 ! A8    A(2,3,9)              112.8586         -DE/DX =   -0.0001              !
 ! A9    A(4,3,9)              118.9656         -DE/DX =    0.0001              !
 ! A10   A(3,4,5)              111.3726         -DE/DX =    0.0001              !
 ! A11   A(4,5,6)              124.2051         -DE/DX =    0.0                 !
 ! A12   A(4,5,10)             120.1618         -DE/DX =    0.0                 !
 ! A13   A(6,5,10)             115.6331         -DE/DX =    0.0                 !
 ! A14   A(1,6,5)              120.0675         -DE/DX =    0.0                 !
 ! A15   A(1,6,7)              120.2719         -DE/DX =    0.0                 !
 ! A16   A(5,6,7)              119.6606         -DE/DX =    0.0                 !
 ! D1    D(6,1,2,3)              0.0            -DE/DX =    0.0                 !
 ! D2    D(6,1,2,11)           180.0            -DE/DX =    0.0                 !
 ! D3    D(8,1,2,3)            180.0            -DE/DX =    0.0                 !
 ! D4    D(8,1,2,11)             0.0            -DE/DX =    0.0                 !
 ! D5    D(2,1,6,5)              0.0            -DE/DX =    0.0                 !
 ! D6    D(2,1,6,7)            180.0            -DE/DX =    0.0                 !
 ! D7    D(8,1,6,5)            180.0            -DE/DX =    0.0                 !
 ! D8    D(8,1,6,7)              0.0            -DE/DX =    0.0                 !
 ! D9    D(1,2,3,4)              0.0            -DE/DX =    0.0                 !
 ! D10   D(1,2,3,9)            180.0            -DE/DX =    0.0                 !
 ! D11   D(11,2,3,4)           180.0            -DE/DX =    0.0                 !
 ! D12   D(11,2,3,9)             0.0            -DE/DX =    0.0                 !
 ! D13   D(2,3,4,5)              0.0            -DE/DX =    0.0                 !
 ! D14   D(9,3,4,5)            180.0            -DE/DX =    0.0                 !
 ! D15   D(3,4,5,6)              0.0            -DE/DX =    0.0                 !
 ! D16   D(3,4,5,10)           180.0            -DE/DX =    0.0                 !
 ! D17   D(4,5,6,1)              0.0            -DE/DX =    0.0                 !
 ! D18   D(4,5,6,7)            180.0            -DE/DX =    0.0                 !
 ! D19   D(10,5,6,1)           180.0            -DE/DX =    0.0                 !
 ! D20   D(10,5,6,7)             0.0            -DE/DX =    0.0                 !
 --------------------------------------------------------------------------------
 GradGradGradGradGradGradGradGradGradGradGradGradGradGradGradGradGradGrad


 ----------------------------------------------------------------------

 Electric dipole moment (input orientation):
 (Debye = 10**-18 statcoulomb cm , SI units = C m)
                  (au)            (Debye)         (10**-30 SI)
   Tot        0.224354D+01      0.570251D+01      0.190215D+02
   x         -0.210129D+01     -0.534094D+01     -0.178155D+02
   y          0.786171D+00      0.199825D+01      0.666544D+01
   z          0.000000D+00      0.000000D+00      0.000000D+00

 Dipole polarizability, Alpha (input orientation).
 (esu units = cm**3 , SI units = C**2 m**2 J**-1)
 Alpha(0;0):
               (au)            (10**-24 esu)      (10**-40 SI)
   iso        0.119379D+03      0.176901D+02      0.196829D+02
   aniso      0.840001D+02      0.124475D+02      0.138498D+02
   xx         0.161015D+03      0.238600D+02      0.265478D+02
   yx         0.106901D+02      0.158411D+01      0.176255D+01
   yy         0.129179D+03      0.191424D+02      0.212988D+02
   zx         0.000000D+00      0.000000D+00      0.000000D+00
   zy         0.000000D+00      0.000000D+00      0.000000D+00
   zz         0.679413D+02      0.100679D+02      0.112020D+02

 ----------------------------------------------------------------------

 Dipole orientation:
     6          0.39531468          1.05660175          2.85948409
     6          1.09887582          2.93708827          1.16929188
     6          0.89448060          2.39077832         -1.39472800
     6          0.06937309          0.18542120         -2.51076752
     6         -0.61008958         -1.63065464         -0.68558738
     6         -0.46461037         -1.24181609          1.91723401
    17         -1.37561290         -3.67675440          4.00178032
    17          0.61876035          1.65382997          6.11126331
    17          1.87595894          5.01408521         -3.40550904
     1         -1.30174999         -3.47933275         -1.27290401
     1          1.77322327          4.73949210          1.86745351

 Electric dipole moment (dipole orientation):
 (Debye = 10**-18 statcoulomb cm , SI units = C m)
                  (au)            (Debye)         (10**-30 SI)
   Tot        0.224354D+01      0.570251D+01      0.190215D+02
   x          0.000000D+00      0.000000D+00      0.000000D+00
   y          0.000000D+00      0.000000D+00      0.000000D+00
   z          0.224354D+01      0.570251D+01      0.190215D+02

 Dipole polarizability, Alpha (dipole orientation).
 (esu units = cm**3 , SI units = C**2 m**2 J**-1)
 Alpha(0;0):
               (au)            (10**-24 esu)      (10**-40 SI)
   iso        0.119379D+03      0.176901D+02      0.196829D+02
   aniso      0.840001D+02      0.124475D+02      0.138498D+02
   xx         0.768024D+02      0.113809D+02      0.126630D+02
   yx         0.236841D+02      0.350962D+01      0.390498D+01
   yy         0.131244D+03      0.194484D+02      0.216393D+02
   zx        -0.648731D+01     -0.961320D+00     -0.106961D+01
   zy        -0.173394D+02     -0.256943D+01     -0.285887D+01
   zz         0.150089D+03      0.222409D+02      0.247464D+02

 ----------------------------------------------------------------------
 1\1\GINC-SH03-07N64\Freq\RM062X\6-311++G(d,p)\C6H2Cl3(1-)\JLAPIER\03-A
 pr-2026\0\\#N Geom=AllCheck Guess=TCheck SCRF=Check GenChk RM062X/6-31
 1++G(d,p) Freq\\1,2,4, trichlorobenzene anion radical\\-1,1\C,-1.20803
 85887,1.0893689569,0.\C,0.0019704459,1.7710641224,0.\C,1.1645999913,1.
 0065184257,0.\C,1.2811083214,-0.367455561,0.\C,0.016948338,-0.99003500
 59,0.\C,-1.1960891916,-0.30162455,0.\Cl,-2.7113229969,-1.2035971592,0.
 \Cl,-2.7014573825,2.0083919219,0.\Cl,2.6805681191,2.0218498232,0.\H,-0
 .0579741286,-2.0772205292,0.\H,0.0127938007,2.8543165471,0.\\Version=E
 S64L-G16RevB.01\State=1-A'\HF=-1610.3927338\RMSD=5.966e-09\RMSF=6.807e
 -05\ZeroPoint=0.0581135\Thermal=0.0660802\Dipole=-2.1012876,0.7861712,
 0.\DipoleDeriv=0.5096381,-0.5749167,0.,-0.4325918,0.1868852,0.,0.,0.,-
 0.0262762,-0.2198592,-0.0174409,0.,-0.025894,-0.1999093,0.,0.,0.,-0.10
 70594,0.9322454,0.8359246,0.,1.0541133,1.0678693,0.,0.,0.,0.0062433,-0
 .4781229,-0.1304687,0.,-0.4022758,-0.9767168,0.,0.,0.,-0.4854446,-0.07
 08562,0.0877242,0.,0.0189049,0.1436254,0.,0.,0.,-0.1155182,0.6933819,0
 .5543673,0.,0.4774762,0.3888717,0.,0.,0.,0.019199,-0.8355201,-0.402000
 5,0.,-0.4214194,-0.3596063,0.,0.,0.,-0.1331723,-0.6481911,0.3092306,0.
 ,0.3596196,-0.3199371,0.,0.,0.,-0.1154124,-0.9559277,-0.6420761,0.,-0.
 5553327,-0.6747375,0.,0.,0.,-0.2457782,0.0112874,-0.0418745,0.,-0.0969
 118,-0.1656974,0.,0.,0.,0.075141,0.0619244,0.0215307,0.,0.0243116,-0.0
 906474,0.,0.,0.,0.1280779\Polar=161.0151993,10.6900707,129.179399,0.,0
 .,67.9412731\Quadrupole=-13.7538301,4.2392757,9.5145545,0.3895038,0.,0
 .\PG=CS [SG(C6H2Cl3)]\NImag=0\\0.55625464,0.05335389,0.61920364,0.,0.,
 0.10971576,-0.26963478,-0.06700019,0.,0.65236023,-0.14751907,-0.174545
 53,0.,0.00682581,0.75678354,0.,0.,-0.05968490,0.,0.,0.12431893,-0.0670
 7369,-0.03691073,0.,-0.24352692,0.14662595,0.,0.47178385,0.04162556,0.
 06900561,0.,0.07149878,-0.18067342,0.,-0.12295675,0.52099120,0.,0.,0.0
 1045948,0.,0.,-0.06660161,0.,0.,0.12834108,-0.01409548,-0.03271862,0.,
 0.03783823,0.02238647,0.,-0.09562644,0.00984476,0.,0.37327813,-0.03485
 322,-0.05834684,0.,0.06693424,-0.02627100,0.,0.03905476,-0.28405636,0.
 ,0.10250677,0.49167950,0.,0.,-0.00622247,0.,0.,0.02011359,0.,0.,-0.056
 74276,0.,0.,0.06963229,0.03163717,0.09104270,0.,-0.06628926,-0.0054608
 1,0.,0.02319818,-0.04958695,0.,-0.23789534,-0.08427310,0.,0.57249066,0
 .01769629,-0.02936181,0.,0.01319387,-0.00380678,0.,-0.03756195,-0.0326
 1849,0.,-0.10447636,-0.13649111,0.,0.01127584,0.69433488,0.,0.,0.01207
 880,0.,0.,-0.00540811,0.,0.,-0.00123784,0.,0.,-0.05218095,0.,0.,0.1376
 4000,-0.08902644,-0.04112273,0.,0.02828164,-0.01960931,0.,-0.02269015,
 0.02294309,0.,-0.05409327,-0.03605814,0.,-0.23282552,0.14023472,0.,0.5
 0430422,0.04328993,-0.32806751,0.,-0.08526149,-0.02767460,0.,0.0369254
 3,-0.05950022,0.,0.03113579,0.06532492,0.,0.04623261,-0.17044681,0.,-0
 .05184791,0.61973548,0.,0.,-0.06254361,0.,0.,0.01158878,0.,0.,-0.01111
 901,0.,0.,0.02119605,0.,0.,-0.06750253,0.,0.,0.11553444,-0.01823254,-0
 .00300386,0.,0.00033609,-0.00134139,0.,0.00245529,0.00206710,0.,-0.002
 24443,0.00740910,0.,-0.04072350,-0.03105578,0.,-0.11102057,-0.05121678
 ,0.,0.16769364,-0.03361193,-0.01477724,0.,0.00273071,-0.00417538,0.,0.
 00096015,0.00035919,0.,0.00002526,0.00209410,0.,-0.00031367,0.00112292
 ,0.,-0.04339757,-0.06837042,0.,0.07745330,0.09001534,0.,0.,0.00154250,
 0.,0.,0.00392032,0.,0.,0.00090733,0.,0.,0.00355737,0.,0.,0.00420223,0.
 ,0.,-0.01934028,0.,0.,0.00924024,-0.12858815,0.05717920,0.,-0.03860408
 ,0.02732475,0.,0.00155020,-0.00424601,0.,0.00052571,0.00072990,0.,0.00
 117275,0.00273928,0.,-0.01869070,0.00325577,0.,0.00403517,-0.00240715,
 0.,0.18185718,0.05299299,-0.07213184,0.,-0.00107815,0.00331908,0.,-0.0
 0131730,-0.00130714,0.,0.00029459,0.00180333,0.,-0.00452232,-0.0055787
 4,0.,0.03421890,-0.01415875,0.,0.00222123,-0.00714406,0.,-0.08437316,0
 .09392339,0.,0.,-0.01766492,0.,0.,0.00289940,0.,0.,0.00503700,0.,0.,-0
 .00168418,0.,0.,0.00332664,0.,0.,0.00123151,0.,0.,-0.00104384,0.,0.,0.
 01011152,0.00027846,0.00445130,0.,-0.04635776,-0.02600685,0.,-0.074270
 78,0.01151731,0.,0.00256828,-0.03954283,0.,-0.00101811,0.00201467,0.,0
 .00052447,-0.00018560,0.,-0.00238697,-0.00109098,0.,-0.00323929,0.0008
 1246,0.,0.12453686,0.00007134,-0.00008752,0.,-0.00201117,-0.00065591,0
 .,-0.01833271,-0.01813647,0.,-0.02349437,-0.04635793,0.,-0.00242900,-0
 .00116531,0.,0.00027544,0.00088724,0.,-0.00239819,-0.00059457,0.,-0.00
 097311,0.00067923,0.,0.04921034,0.06473616,0.,0.,0.00372167,0.,0.,0.00
 459222,0.,0.,-0.02249455,0.,0.,0.00033670,0.,0.,0.00680782,0.,0.,-0.00
 066059,0.,0.,-0.00119207,0.,0.,0.00025771,0.,0.,0.00998998,-0.00287333
 ,0.00147293,0.,-0.00161603,-0.00033389,0.,-0.00136403,-0.00716598,0.,-
 0.00615646,-0.02573413,0.,-0.04821239,-0.01350140,0.,-0.00159114,0.028
 79652,0.,0.00085898,0.00124190,0.,-0.00091452,0.00177614,0.,-0.0001614
 2,-0.00056219,0.,0.06187790,0.00321329,0.00102111,0.,-0.00074052,0.000
 97524,0.,-0.00122584,-0.00181061,0.,-0.01001884,-0.00806731,0.,-0.0027
 8716,-0.31757446,0.,-0.00290226,-0.01907773,0.,-0.00025961,0.00156542,
 0.,0.00062539,-0.00070414,0.,-0.00004575,-0.00029898,0.,0.01408447,0.3
 4410174,0.,0.,0.00575375,0.,0.,-0.00189123,0.,0.,0.00999760,0.,0.,-0.0
 0202395,0.,0.,-0.03786560,0.,0.,0.00491146,0.,0.,-0.00244269,0.,0.,0.0
 0061919,0.,0.,0.00033441,0.,0.,0.02419092,0.00135412,-0.02674389,0.,-0
 .05278736,-0.00289165,0.,0.00556449,0.02445909,0.,-0.00409893,0.003826
 65,0.,-0.00153464,-0.00055919,0.,-0.00317254,-0.00112426,0.,-0.0007711
 6,-0.00159002,0.,0.00089573,-0.00102538,0.,-0.00047372,0.00064362,0.,0
 .00015245,0.00005683,0.,0.05487156,0.00374094,-0.01191208,0.,-0.005091
 90,-0.34327524,0.,-0.00526100,-0.01225329,0.,0.00451454,-0.00131131,0.
 ,0.00082186,0.00158572,0.,-0.00273422,0.00134840,0.,0.00012487,-0.0000
 9529,0.,0.00014514,0.00129962,0.,-0.00113407,0.00099407,0.,-0.00007436
 ,-0.00013028,0.,0.00494821,0.36374969,0.,0.,0.00284393,0.,0.,-0.033847
 38,0.,0.,0.00345328,0.,0.,0.00401833,0.,0.,0.00013953,0.,0.,0.00670379
 ,0.,0.,0.00064888,0.,0.,-0.00309003,0.,0.,-0.00169331,0.,0.,-0.0015838
 6,0.,0.,0.02240684\\-0.00010095,-0.00006209,0.,0.00007258,-0.00001171,
 0.,-0.00015914,0.00018741,0.,0.00016317,-0.00013869,0.,-0.00008237,0.0
 0000513,0.,-0.00007821,0.00002008,0.,0.00004675,0.00004707,0.,0.000014
 53,-0.00003603,0.,0.00007808,0.00000589,0.,0.00001277,0.00000538,0.,0.
 00003280,-0.00002243,0.\\\@


 IF IT HAPPENS, IT MUST BE POSSIBLE.

 -- THE UNNAMED LAW FROM PAUL DICKSON'S 
    "THE OFFICIAL RULES"
 Job cpu time:       0 days  0 hours 13 minutes 30.8 seconds.
 Elapsed time:       0 days  0 hours  3 minutes 25.4 seconds.
 File lengths (MBytes):  RWF=     88 Int=      0 D2E=      0 Chk=      6 Scr=      1
 Normal termination of Gaussian 16 at Fri Apr  3 14:19:47 2026.
