 Entering Gaussian System, Link 0=g16
 Initial command:
 /share/software/user/restricted/gaussian/g16.B01/l1.exe "/home/users/jlapier/Chloroaromatics/Gau-19165.inp" -scrdir="/home/users/jlapier/Chloroaromatics/"
 Entering Link 1 = /share/software/user/restricted/gaussian/g16.B01/l1.exe PID=     19166.
  
 Copyright (c) 1988-2017, Gaussian, Inc.  All Rights Reserved.
  
 This is part of the Gaussian(R) 16 program.  It is based on
 the Gaussian(R) 09 system (copyright 2009, Gaussian, Inc.),
 the Gaussian(R) 03 system (copyright 2003, Gaussian, Inc.),
 the Gaussian(R) 98 system (copyright 1998, Gaussian, Inc.),
 the Gaussian(R) 94 system (copyright 1995, Gaussian, Inc.),
 the Gaussian 92(TM) system (copyright 1992, Gaussian, Inc.),
 the Gaussian 90(TM) system (copyright 1990, Gaussian, Inc.),
 the Gaussian 88(TM) system (copyright 1988, Gaussian, Inc.),
 the Gaussian 86(TM) system (copyright 1986, Carnegie Mellon
 University), and the Gaussian 82(TM) system (copyright 1983,
 Carnegie Mellon University). Gaussian is a federally registered
 trademark of Gaussian, Inc.
  
 This software contains proprietary and confidential information,
 including trade secrets, belonging to Gaussian, Inc.
  
 This software is provided under written license and may be
 used, copied, transmitted, or stored only in accord with that
 written license.
  
 The following legend is applicable only to US Government
 contracts under FAR:
  
                    RESTRICTED RIGHTS LEGEND
  
 Use, reproduction and disclosure by the US Government is
 subject to restrictions as set forth in subparagraphs (a)
 and (c) of the Commercial Computer Software - Restricted
 Rights clause in FAR 52.227-19.
  
 Gaussian, Inc.
 340 Quinnipiac St., Bldg. 40, Wallingford CT 06492
  
  
 ---------------------------------------------------------------
 Warning -- This program may not be used in any manner that
 competes with the business of Gaussian, Inc. or will provide
 assistance to any competitor of Gaussian, Inc.  The licensee
 of this program is prohibited from giving any competitor of
 Gaussian, Inc. access to this program.  By using this program,
 the user acknowledges that Gaussian, Inc. is engaged in the
 business of creating and licensing software in the field of
 computational chemistry and represents and warrants to the
 licensee that it is not a competitor of Gaussian, Inc. and that
 it will not use this program in any manner prohibited above.
 ---------------------------------------------------------------
  

 Cite this work as:
 Gaussian 16, Revision B.01,
 M. J. Frisch, G. W. Trucks, H. B. Schlegel, G. E. Scuseria, 
 M. A. Robb, J. R. Cheeseman, G. Scalmani, V. Barone, 
 G. A. Petersson, H. Nakatsuji, X. Li, M. Caricato, A. V. Marenich, 
 J. Bloino, B. G. Janesko, R. Gomperts, B. Mennucci, H. P. Hratchian, 
 J. V. Ortiz, A. F. Izmaylov, J. L. Sonnenberg, D. Williams-Young, 
 F. Ding, F. Lipparini, F. Egidi, J. Goings, B. Peng, A. Petrone, 
 T. Henderson, D. Ranasinghe, V. G. Zakrzewski, J. Gao, N. Rega, 
 G. Zheng, W. Liang, M. Hada, M. Ehara, K. Toyota, R. Fukuda, 
 J. Hasegawa, M. Ishida, T. Nakajima, Y. Honda, O. Kitao, H. Nakai, 
 T. Vreven, K. Throssell, J. A. Montgomery, Jr., J. E. Peralta, 
 F. Ogliaro, M. J. Bearpark, J. J. Heyd, E. N. Brothers, K. N. Kudin, 
 V. N. Staroverov, T. A. Keith, R. Kobayashi, J. Normand, 
 K. Raghavachari, A. P. Rendell, J. C. Burant, S. S. Iyengar, 
 J. Tomasi, M. Cossi, J. M. Millam, M. Klene, C. Adamo, R. Cammi, 
 J. W. Ochterski, R. L. Martin, K. Morokuma, O. Farkas, 
 J. B. Foresman, and D. J. Fox, Gaussian, Inc., Wallingford CT, 2016.
 
 ******************************************
 Gaussian 16:  ES64L-G16RevB.01 20-Dec-2017
                 3-Apr-2026 
 ******************************************
 %mem=8GB
 %nprocshare=4
 Will use up to    4 processors via shared memory.
 %chk=frequency_chks/124trichlorobenzene_anion_product_Freq.chk
 ------------------------------
 # opt freq 6-311++g(d,p) m062x
 ------------------------------
 1/18=20,19=15,26=3,38=1/1,3;
 2/9=110,12=2,17=6,18=5,40=1/2;
 3/5=4,6=6,7=1111,11=2,25=1,30=1,71=1,74=-55/1,2,3;
 4//1;
 5/5=2,38=5/2;
 6/7=2,8=2,9=2,10=2,28=1/1;
 7//1,2,3,16;
 1/18=20,19=15,26=3/3(2);
 2/9=110/2;
 99//99;
 2/9=110/2;
 3/5=4,6=6,7=1111,11=2,25=1,30=1,71=1,74=-55/1,2,3;
 4/5=5,16=3,69=1/1;
 5/5=2,38=5/2;
 7//1,2,3,16;
 1/18=20,19=15,26=3/3(-5);
 2/9=110/2;
 6/7=2,8=2,9=2,10=2,19=2,28=1/1;
 99/9=1/99;
 ---------------------------------
 1,4 dichlorobenzene anion radical
 ---------------------------------
 Symbolic Z-matrix:
 Charge = -1 Multiplicity = 1
 C                    -1.2521    1.11482   0. 
 C                    -0.03766   1.80689   0. 
 C                     1.17107   1.10034   0. 
 C                     1.16085  -0.29988   0. 
 C                    -0.05548  -0.9913    0. 
 C                    -1.26282  -0.28292   0. 
 Cl                   -2.79155  -1.13878   0. 
 H                    -0.03994   2.88887   0. 
 H                    -0.05846  -2.07384   0. 
 Cl                    2.69565   1.96776   0. 
 H                     2.09218  -0.85173   0. 
 

 GradGradGradGradGradGradGradGradGradGradGradGradGradGradGradGradGradGrad
 Berny optimization.
 Initialization pass.
                           ----------------------------
                           !    Initial Parameters    !
                           ! (Angstroms and Degrees)  !
 --------------------------                            --------------------------
 ! Name  Definition              Value          Derivative Info.                !
 --------------------------------------------------------------------------------
 ! R1    R(1,2)                  1.3978         estimate D2E/DX2                !
 ! R2    R(1,6)                  1.3978         estimate D2E/DX2                !
 ! R3    R(2,3)                  1.4001         estimate D2E/DX2                !
 ! R4    R(2,8)                  1.082          estimate D2E/DX2                !
 ! R5    R(3,4)                  1.4003         estimate D2E/DX2                !
 ! R6    R(3,10)                 1.7541         estimate D2E/DX2                !
 ! R7    R(4,5)                  1.3991         estimate D2E/DX2                !
 ! R8    R(4,11)                 1.0826         estimate D2E/DX2                !
 ! R9    R(5,6)                  1.3998         estimate D2E/DX2                !
 ! R10   R(5,9)                  1.0825         estimate D2E/DX2                !
 ! R11   R(6,7)                  1.752          estimate D2E/DX2                !
 ! A1    A(2,1,6)              120.1167         estimate D2E/DX2                !
 ! A2    A(1,2,3)              120.015          estimate D2E/DX2                !
 ! A3    A(1,2,8)              119.5565         estimate D2E/DX2                !
 ! A4    A(3,2,8)              120.4285         estimate D2E/DX2                !
 ! A5    A(2,3,4)              119.8897         estimate D2E/DX2                !
 ! A6    A(2,3,10)             120.0545         estimate D2E/DX2                !
 ! A7    A(4,3,10)             120.0559         estimate D2E/DX2                !
 ! A8    A(3,4,5)              120.0342         estimate D2E/DX2                !
 ! A9    A(3,4,11)             120.2306         estimate D2E/DX2                !
 ! A10   A(5,4,11)             119.7352         estimate D2E/DX2                !
 ! A11   A(4,5,6)              119.9825         estimate D2E/DX2                !
 ! A12   A(4,5,9)              119.7737         estimate D2E/DX2                !
 ! A13   A(6,5,9)              120.2439         estimate D2E/DX2                !
 ! A14   A(1,6,5)              119.962          estimate D2E/DX2                !
 ! A15   A(1,6,7)              119.6814         estimate D2E/DX2                !
 ! A16   A(5,6,7)              120.3566         estimate D2E/DX2                !
 ! D1    D(6,1,2,3)              0.0            estimate D2E/DX2                !
 ! D2    D(6,1,2,8)            180.0            estimate D2E/DX2                !
 ! D3    D(2,1,6,5)              0.0            estimate D2E/DX2                !
 ! D4    D(2,1,6,7)            180.0            estimate D2E/DX2                !
 ! D5    D(1,2,3,4)              0.0            estimate D2E/DX2                !
 ! D6    D(1,2,3,10)           180.0            estimate D2E/DX2                !
 ! D7    D(8,2,3,4)            180.0            estimate D2E/DX2                !
 ! D8    D(8,2,3,10)             0.0            estimate D2E/DX2                !
 ! D9    D(2,3,4,5)              0.0            estimate D2E/DX2                !
 ! D10   D(2,3,4,11)           180.0            estimate D2E/DX2                !
 ! D11   D(10,3,4,5)           180.0            estimate D2E/DX2                !
 ! D12   D(10,3,4,11)            0.0            estimate D2E/DX2                !
 ! D13   D(3,4,5,6)              0.0            estimate D2E/DX2                !
 ! D14   D(3,4,5,9)            180.0            estimate D2E/DX2                !
 ! D15   D(11,4,5,6)           180.0            estimate D2E/DX2                !
 ! D16   D(11,4,5,9)             0.0            estimate D2E/DX2                !
 ! D17   D(4,5,6,1)              0.0            estimate D2E/DX2                !
 ! D18   D(4,5,6,7)            180.0            estimate D2E/DX2                !
 ! D19   D(9,5,6,1)            180.0            estimate D2E/DX2                !
 ! D20   D(9,5,6,7)              0.0            estimate D2E/DX2                !
 --------------------------------------------------------------------------------
 Trust Radius=3.00D-01 FncErr=1.00D-07 GrdErr=1.00D-06 EigMax=2.50D+02 EigMin=1.00D-04
 Number of steps in this run=     57 maximum allowed number of steps=    100.
 GradGradGradGradGradGradGradGradGradGradGradGradGradGradGradGradGradGrad

                          Input orientation:                          
 ---------------------------------------------------------------------
 Center     Atomic      Atomic             Coordinates (Angstroms)
 Number     Number       Type             X           Y           Z
 ---------------------------------------------------------------------
      1          6           0       -1.252098    1.114824    0.000000
      2          6           0       -0.037663    1.806888    0.000000
      3          6           0        1.171066    1.100345    0.000000
      4          6           0        1.160849   -0.299877    0.000000
      5          6           0       -0.055484   -0.991302    0.000000
      6          6           0       -1.262818   -0.282924    0.000000
      7         17           0       -2.791553   -1.138777    0.000000
      8          1           0       -0.039944    2.888867    0.000000
      9          1           0       -0.058460   -2.073842    0.000000
     10         17           0        2.695650    1.967760    0.000000
     11          1           0        2.092181   -0.851732    0.000000
 ---------------------------------------------------------------------
                    Distance matrix (angstroms):
                    1          2          3          4          5
     1  C    0.000000
     2  C    1.397785   0.000000
     3  C    2.423207   1.400081   0.000000
     4  C    2.797086   2.423816   1.400259   0.000000
     5  C    2.422324   2.798247   2.424750   1.399119   0.000000
     6  C    1.397789   2.422460   2.799503   2.423726   1.399806
     7  Cl   2.729219   4.032474   4.551484   4.040449   2.740041
     8  H    2.148615   1.081982   2.159943   3.407343   3.880200
     9  H    3.404756   3.880785   3.403997   2.152595   1.082544
    10  Cl   4.038839   2.738043   1.754072   2.738210   4.040395
    11  H    3.879633   3.406537   2.158485   1.082555   2.152195
                    6          7          8          9         10
     6  C    0.000000
     7  Cl   1.752003   0.000000
     8  H    3.399364   4.877834   0.000000
     9  H    2.158209   2.888623   4.962744   0.000000
    10  Cl   4.553575   6.305551   2.886505   4.890774   0.000000
    11  H    3.402875   4.892162   4.305582   2.473622   2.883351
                   11
    11  H    0.000000
 Stoichiometry    C6H3Cl2(1-)
 Framework group  CS[SG(C6H3Cl2)]
 Deg. of freedom    19
 Full point group                 CS      NOp   2
 Largest Abelian subgroup         CS      NOp   2
 Largest concise Abelian subgroup C1      NOp   1
                         Standard orientation:                         
 ---------------------------------------------------------------------
 Center     Atomic      Atomic             Coordinates (Angstroms)
 Number     Number       Type             X           Y           Z
 ---------------------------------------------------------------------
      1          6           0       -0.004653   -1.429552   -0.000000
      2          6           0        1.207757   -0.733948   -0.000000
      3          6           0        1.211924    0.666127   -0.000000
      4          6           0        0.000000    1.367530    0.000000
      5          6           0       -1.212823    0.669967    0.000000
      6          6           0       -1.214700   -0.729837    0.000000
      7         17           0       -2.727684   -1.613236    0.000000
      8          1           0        2.139074   -1.284705   -0.000000
      9          1           0       -2.147289    1.216478    0.000000
     10         17           0        2.732767    1.540085   -0.000000
     11          1           0       -0.003219    2.450080    0.000000
 ---------------------------------------------------------------------
 Rotational constants (GHZ):           5.9848047           0.6561049           0.5912834
 Standard basis: 6-311++G(d,p) (5D, 7F)
 There are   166 symmetry adapted cartesian basis functions of A'  symmetry.
 There are    55 symmetry adapted cartesian basis functions of A"  symmetry.
 There are   158 symmetry adapted basis functions of A'  symmetry.
 There are    55 symmetry adapted basis functions of A"  symmetry.
   213 basis functions,   349 primitive gaussians,   221 cartesian basis functions
    37 alpha electrons       37 beta electrons
       nuclear repulsion energy       432.2087501544 Hartrees.
 NAtoms=   11 NActive=   11 NUniq=   11 SFac= 1.00D+00 NAtFMM=   60 NAOKFM=F Big=F
 Integral buffers will be    131072 words long.
 Raffenetti 2 integral format.
 Two-electron integral symmetry is turned on.
 One-electron integrals computed using PRISM.
 NBasis=   213 RedAO= T EigKep=  1.70D-06  NBF=   158    55
 NBsUse=   213 1.00D-06 EigRej= -1.00D+00 NBFU=   158    55
 ExpMin= 3.60D-02 ExpMax= 1.06D+05 ExpMxC= 3.62D+03 IAcc=3 IRadAn=         5 AccDes= 0.00D+00
 Harris functional with IExCor= 1009 and IRadAn=       5 diagonalized for initial guess.
 HarFok:  IExCor= 1009 AccDes= 0.00D+00 IRadAn=         5 IDoV= 1 UseB2=F ITyADJ=14
 ICtDFT=  3500011 ScaDFX=  1.000000  1.000000  1.000000  1.000000
 FoFCou: FMM=F IPFlag=           0 FMFlag=      100000 FMFlg1=           0
         NFxFlg=           0 DoJE=T BraDBF=F KetDBF=T FulRan=T
         wScrn=  0.000000 ICntrl=       500 IOpCl=  0 I1Cent=   200000004 NGrid=           0
         NMat0=    1 NMatS0=      1 NMatT0=    0 NMatD0=    1 NMtDS0=    0 NMtDT0=    0
 Petite list used in FoFCou.
 Initial guess orbital symmetries:
       Occupied  (A') (A') (A') (A') (A') (A') (A') (A') (A') (A')
                 (A') (A') (A') (A") (A') (A") (A') (A') (A') (A')
                 (A') (A') (A') (A') (A') (A') (A') (A") (A') (A')
                 (A") (A") (A") (A') (A') (A') (A")
       Virtual   (A") (A") (A') (A') (A') (A') (A") (A') (A') (A")
                 (A') (A') (A") (A") (A') (A') (A') (A') (A') (A')
                 (A") (A") (A') (A') (A') (A") (A') (A") (A') (A')
                 (A') (A") (A') (A') (A') (A') (A') (A') (A') (A')
                 (A') (A') (A') (A') (A') (A') (A') (A') (A') (A')
                 (A') (A") (A") (A') (A') (A') (A") (A') (A') (A")
                 (A') (A") (A') (A") (A") (A') (A') (A") (A') (A')
                 (A') (A') (A") (A') (A') (A') (A') (A') (A") (A')
                 (A") (A") (A') (A') (A") (A') (A') (A') (A") (A')
                 (A") (A') (A") (A') (A') (A') (A') (A') (A") (A")
                 (A') (A') (A') (A') (A") (A') (A") (A') (A') (A")
                 (A') (A') (A") (A") (A") (A') (A') (A') (A") (A')
                 (A') (A') (A") (A') (A') (A") (A") (A") (A') (A')
                 (A') (A') (A') (A") (A') (A') (A') (A') (A") (A')
                 (A') (A") (A') (A') (A") (A") (A') (A") (A') (A')
                 (A') (A') (A') (A') (A') (A') (A') (A') (A') (A')
                 (A') (A') (A') (A') (A') (A') (A') (A') (A") (A")
                 (A') (A') (A') (A') (A') (A')
 The electronic state of the initial guess is 1-A'.
 Keep R1 ints in memory in symmetry-blocked form, NReq=396964985.
 Requested convergence on RMS density matrix=1.00D-08 within 128 cycles.
 Requested convergence on MAX density matrix=1.00D-06.
 Requested convergence on             energy=1.00D-06.
 No special actions if energy rises.
 SCF Done:  E(RM062X) =  -1150.78070055     A.U. after   18 cycles
            NFock= 18  Conv=0.90D-08     -V/T= 2.0025

 **********************************************************************

            Population analysis using the SCF Density.

 **********************************************************************

 Orbital symmetries:
       Occupied  (A') (A') (A') (A') (A') (A') (A') (A') (A') (A')
                 (A') (A") (A') (A') (A") (A') (A') (A') (A') (A')
                 (A') (A') (A') (A') (A') (A') (A') (A") (A') (A")
                 (A') (A') (A") (A') (A") (A") (A')
       Virtual   (A') (A') (A') (A') (A') (A") (A") (A') (A") (A")
                 (A') (A') (A') (A') (A") (A') (A') (A") (A') (A')
                 (A') (A") (A") (A') (A") (A') (A') (A") (A') (A')
                 (A') (A') (A') (A') (A") (A') (A') (A') (A') (A')
                 (A') (A') (A') (A') (A') (A') (A') (A') (A') (A")
                 (A") (A') (A') (A') (A') (A") (A') (A') (A") (A")
                 (A') (A") (A") (A') (A') (A') (A") (A') (A') (A')
                 (A') (A') (A") (A') (A') (A') (A') (A') (A") (A")
                 (A') (A") (A') (A') (A') (A') (A') (A') (A") (A')
                 (A") (A') (A") (A') (A") (A') (A') (A') (A") (A")
                 (A') (A') (A') (A') (A") (A') (A") (A') (A') (A")
                 (A') (A') (A") (A') (A") (A") (A') (A') (A") (A')
                 (A') (A') (A") (A') (A") (A') (A") (A") (A') (A')
                 (A') (A') (A') (A') (A') (A') (A') (A") (A') (A')
                 (A') (A") (A") (A') (A") (A") (A') (A") (A') (A')
                 (A') (A') (A') (A') (A') (A') (A') (A') (A') (A')
                 (A') (A') (A') (A') (A') (A') (A') (A') (A") (A")
                 (A') (A') (A') (A') (A') (A')
 The electronic state is 1-A'.
 Alpha  occ. eigenvalues -- -102.53924-102.51145 -10.45113 -10.42889 -10.40374
 Alpha  occ. eigenvalues --  -10.40269 -10.38246 -10.32533  -9.68215  -9.65470
 Alpha  occ. eigenvalues --   -7.40687  -7.40085  -7.40083  -7.37932  -7.37346
 Alpha  occ. eigenvalues --   -7.37326  -0.84435  -0.81277  -0.75632  -0.67594
 Alpha  occ. eigenvalues --   -0.64088  -0.52908  -0.49749  -0.42450  -0.37488
 Alpha  occ. eigenvalues --   -0.36781  -0.34132  -0.31742  -0.30724  -0.27849
 Alpha  occ. eigenvalues --   -0.26593  -0.24650  -0.22689  -0.21424  -0.14570
 Alpha  occ. eigenvalues --   -0.12416  -0.05470
 Alpha virt. eigenvalues --    0.10033   0.11680   0.12267   0.14458   0.15311
 Alpha virt. eigenvalues --    0.15713   0.17088   0.18575   0.19266   0.19738
 Alpha virt. eigenvalues --    0.19793   0.20462   0.21075   0.22059   0.22101
 Alpha virt. eigenvalues --    0.23178   0.23654   0.23910   0.25161   0.25807
 Alpha virt. eigenvalues --    0.26173   0.26279   0.27430   0.27835   0.28452
 Alpha virt. eigenvalues --    0.28859   0.29905   0.30431   0.30467   0.32242
 Alpha virt. eigenvalues --    0.33625   0.34244   0.34766   0.37156   0.37550
 Alpha virt. eigenvalues --    0.37556   0.38351   0.39328   0.39814   0.41557
 Alpha virt. eigenvalues --    0.43177   0.44255   0.44772   0.48361   0.50204
 Alpha virt. eigenvalues --    0.51413   0.52676   0.59266   0.60520   0.60885
 Alpha virt. eigenvalues --    0.62931   0.62989   0.65673   0.67555   0.70283
 Alpha virt. eigenvalues --    0.72096   0.72248   0.74352   0.75861   0.77989
 Alpha virt. eigenvalues --    0.78855   0.80110   0.80864   0.81278   0.83141
 Alpha virt. eigenvalues --    0.86611   0.87558   0.88742   0.91117   0.92954
 Alpha virt. eigenvalues --    0.94817   0.97890   1.01528   1.01771   1.03062
 Alpha virt. eigenvalues --    1.05566   1.06226   1.06861   1.06879   1.08378
 Alpha virt. eigenvalues --    1.08732   1.09743   1.10693   1.12884   1.13292
 Alpha virt. eigenvalues --    1.15646   1.16888   1.19056   1.21974   1.22510
 Alpha virt. eigenvalues --    1.25375   1.31849   1.32071   1.35622   1.40235
 Alpha virt. eigenvalues --    1.41609   1.42403   1.44451   1.51741   1.52432
 Alpha virt. eigenvalues --    1.63220   1.68771   1.71323   1.73928   1.76839
 Alpha virt. eigenvalues --    1.80141   1.81502   1.87555   1.89388   1.91289
 Alpha virt. eigenvalues --    1.93018   1.99340   2.07061   2.10327   2.10722
 Alpha virt. eigenvalues --    2.12790   2.12994   2.14020   2.21662   2.22660
 Alpha virt. eigenvalues --    2.24428   2.28897   2.34167   2.42131   2.45002
 Alpha virt. eigenvalues --    2.46375   2.48229   2.51917   2.56221   2.61932
 Alpha virt. eigenvalues --    2.62230   2.67980   2.69439   2.73024   2.76639
 Alpha virt. eigenvalues --    2.82799   2.86877   2.87101   2.88998   2.91439
 Alpha virt. eigenvalues --    2.92144   3.00695   3.01180   3.01981   3.09902
 Alpha virt. eigenvalues --    3.11603   3.27447   3.29589   3.33153   3.35272
 Alpha virt. eigenvalues --    3.46378   3.54449   3.61408   3.73023   3.84757
 Alpha virt. eigenvalues --    4.01894   4.08925   4.25974   4.33114   4.99510
 Alpha virt. eigenvalues --   10.09612  10.13590  23.69230  24.09122  24.17982
 Alpha virt. eigenvalues --   24.23930  24.30748  24.36586  26.06432  26.09837
 Alpha virt. eigenvalues --   26.31751  26.42576  26.80536  26.87881 216.19600
 Alpha virt. eigenvalues --  216.23874
          Condensed to atoms (all electrons):
               1          2          3          4          5          6
     1  C   11.162554   1.429035  -1.555124  -1.716299  -6.168609   2.848920
     2  C    1.429035  17.454550  -1.867547  -6.980932  -3.599189   0.798718
     3  C   -1.555124  -1.867547  19.828757  -7.561367   4.528794  -6.217635
     4  C   -1.716299  -6.980932  -7.561367  24.711623  -5.941194   3.615246
     5  C   -6.168609  -3.599189   4.528794  -5.941194  27.635366 -12.030281
     6  C    2.848920   0.798718  -6.217635   3.615246 -12.030281  19.545401
     7  Cl  -0.649630  -0.042854   0.052458  -0.230287   1.648066  -2.221412
     8  H    0.194419   0.558449  -0.372686  -0.106775  -0.054572  -0.074018
     9  H   -0.080646  -0.006249   0.172186  -0.357560   0.825969  -0.437762
    10  Cl   0.386178  -0.327021  -1.517129   0.611602   0.113381  -0.013676
    11  H    0.068939  -0.163604  -0.393912   0.765138  -0.214818   0.216824
               7          8          9         10         11
     1  C   -0.649630   0.194419  -0.080646   0.386178   0.068939
     2  C   -0.042854   0.558449  -0.006249  -0.327021  -0.163604
     3  C    0.052458  -0.372686   0.172186  -1.517129  -0.393912
     4  C   -0.230287  -0.106775  -0.357560   0.611602   0.765138
     5  C    1.648066  -0.054572   0.825969   0.113381  -0.214818
     6  C   -2.221412  -0.074018  -0.437762  -0.013676   0.216824
     7  Cl  18.039310   0.010640   0.145982  -0.020914  -0.022428
     8  H    0.010640   0.676611   0.004007   0.028059  -0.001668
     9  H    0.145982   0.004007   0.640748  -0.013131  -0.027024
    10  Cl  -0.020914   0.028059  -0.013131  17.567416   0.041203
    11  H   -0.022428  -0.001668  -0.027024   0.041203   0.585141
 Mulliken charges:
               1
     1  C    0.080264
     2  C   -1.253358
     3  C    0.903205
     4  C   -0.809196
     5  C   -0.742911
     6  C   -0.030325
     7  Cl   0.291066
     8  H    0.137536
     9  H    0.133479
    10  Cl   0.144033
    11  H    0.146209
 Sum of Mulliken charges =  -1.00000
 Mulliken charges with hydrogens summed into heavy atoms:
               1
     1  C    0.080264
     2  C   -1.115823
     3  C    0.903205
     4  C   -0.662988
     5  C   -0.609432
     6  C   -0.030325
     7  Cl   0.291066
    10  Cl   0.144033
 Electronic spatial extent (au):  <R**2>=           1694.0334
 Charge=             -1.0000 electrons
 Dipole moment (field-independent basis, Debye):
    X=              0.2940    Y=              4.7670    Z=             -0.0000  Tot=              4.7761
 Quadrupole moment (field-independent basis, Debye-Ang):
   XX=            -80.4690   YY=            -80.5752   ZZ=            -67.3150
   XY=            -10.1216   XZ=              0.0000   YZ=              0.0000
 Traceless Quadrupole moment (field-independent basis, Debye-Ang):
   XX=             -4.3493   YY=             -4.4555   ZZ=              8.8047
   XY=            -10.1216   XZ=              0.0000   YZ=              0.0000
 Octapole moment (field-independent basis, Debye-Ang**2):
  XXX=              6.6861  YYY=             40.4750  ZZZ=              0.0000  XYY=              0.7026
  XXY=              3.5123  XXZ=              0.0000  XZZ=              0.4927  YZZ=              2.9990
  YYZ=              0.0000  XYZ=              0.0000
 Hexadecapole moment (field-independent basis, Debye-Ang**3):
 XXXX=          -1630.3232 YYYY=           -836.8307 ZZZZ=            -88.1691 XXXY=           -392.2104
 XXXZ=              0.0000 YYYX=           -357.3106 YYYZ=              0.0000 ZZZX=              0.0000
 ZZZY=              0.0000 XXYY=           -405.9199 XXZZ=           -276.6228 YYZZ=           -149.6653
 XXYZ=              0.0000 YYXZ=              0.0000 ZZXY=           -112.6327
 N-N= 4.322087501544D+02 E-N=-3.599758786528D+03  KE= 1.147931225569D+03
 Symmetry A'   KE= 1.049960837721D+03
 Symmetry A"   KE= 9.797038784783D+01
 Calling FoFJK, ICntrl=      2127 FMM=F ISym2X=1 I1Cent= 0 IOpClX= 0 NMat=1 NMatS=1 NMatT=0.
 ***** Axes restored to original set *****
 -------------------------------------------------------------------
 Center     Atomic                   Forces (Hartrees/Bohr)
 Number     Number              X              Y              Z
 -------------------------------------------------------------------
      1        6          -0.029304183    0.000793618    0.000000000
      2        6           0.004975928   -0.021199796    0.000000000
      3        6          -0.021077857   -0.010143404    0.000000000
      4        6           0.002518886    0.004879127   -0.000000000
      5        6          -0.010188866   -0.002385816    0.000000000
      6        6           0.045177072    0.037662132   -0.000000000
      7       17          -0.010183625   -0.011947146    0.000000000
      8        1           0.004156377    0.004420887   -0.000000000
      9        1           0.002931696   -0.004579338    0.000000000
     10       17           0.010044739    0.002378316   -0.000000000
     11        1           0.000949832    0.000121419   -0.000000000
 -------------------------------------------------------------------
 Cartesian Forces:  Max     0.045177072 RMS     0.013371245

 GradGradGradGradGradGradGradGradGradGradGradGradGradGradGradGradGradGrad
 Berny optimization.
 FormGI is forming the generalized inverse of G from B-inverse, IUseBI=4.
 Internal  Forces:  Max     0.027855142 RMS     0.007992248
 Search for a local minimum.
 Step number   1 out of a maximum of   57
 All quantities printed in internal units (Hartrees-Bohrs-Radians)
 Mixed Optimization -- RFO/linear search
 Second derivative matrix not updated -- first step.
 ITU=  0
     Eigenvalues ---    0.02086   0.02089   0.02092   0.02096   0.02096
     Eigenvalues ---    0.02097   0.02101   0.02112   0.16000   0.16000
     Eigenvalues ---    0.16000   0.22319   0.23429   0.24562   0.25000
     Eigenvalues ---    0.25000   0.30096   0.30294   0.35687   0.35689
     Eigenvalues ---    0.35756   0.41768   0.42357   0.45625   0.45652
     Eigenvalues ---    0.45853   0.45936
 RFO step:  Lambda=-1.07710708D-02 EMin= 2.08647861D-02
 Linear search not attempted -- first point.
 Iteration  1 RMS(Cart)=  0.03502029 RMS(Int)=  0.00110102
 Iteration  2 RMS(Cart)=  0.00141228 RMS(Int)=  0.00022405
 Iteration  3 RMS(Cart)=  0.00000044 RMS(Int)=  0.00022405
 ClnCor:  largest displacement from symmetrization is 4.48D-09 for atom     3.
 Variable       Old X    -DE/DX   Delta X   Delta X   Delta X     New X
                                 (Linear)    (Quad)   (Total)
    R1        2.64143   0.00190   0.00000   0.00401   0.00416   2.64559
    R2        2.64144  -0.01072   0.00000  -0.02266  -0.02230   2.61913
    R3        2.64577  -0.00315   0.00000  -0.00689  -0.00708   2.63869
    R4        2.04465   0.00441   0.00000   0.01198   0.01198   2.05663
    R5        2.64611  -0.01327   0.00000  -0.02856  -0.02891   2.61719
    R6        3.31472   0.00991   0.00000   0.03178   0.03178   3.34650
    R7        2.64395  -0.01021   0.00000  -0.02177  -0.02193   2.62203
    R8        2.04573   0.00076   0.00000   0.00205   0.00205   2.04779
    R9        2.64525  -0.00471   0.00000  -0.00992  -0.00972   2.63553
   R10        2.04571   0.00457   0.00000   0.01243   0.01243   2.05814
   R11        3.31081   0.01472   0.00000   0.04693   0.04693   3.35773
    A1        2.09643  -0.02786   0.00000  -0.10625  -0.10549   1.99094
    A2        2.09466   0.00921   0.00000   0.03977   0.03970   2.13436
    A3        2.08665  -0.00034   0.00000   0.00509   0.00512   2.09177
    A4        2.10187  -0.00887   0.00000  -0.04485  -0.04482   2.05705
    A5        2.09247   0.00743   0.00000   0.02823   0.02764   2.12011
    A6        2.09535   0.00110   0.00000   0.00435   0.00465   2.10000
    A7        2.09537  -0.00853   0.00000  -0.03258  -0.03229   2.06308
    A8        2.09499  -0.00820   0.00000  -0.03546  -0.03604   2.05895
    A9        2.09842   0.00350   0.00000   0.01423   0.01452   2.11294
   A10        2.08977   0.00470   0.00000   0.02123   0.02152   2.11129
   A11        2.09409  -0.00422   0.00000  -0.01764  -0.01767   2.07642
   A12        2.09044  -0.00090   0.00000  -0.00879  -0.00877   2.08167
   A13        2.09865   0.00512   0.00000   0.02643   0.02644   2.12509
   A14        2.09373   0.02364   0.00000   0.09136   0.09185   2.18559
   A15        2.08883  -0.00281   0.00000  -0.01112  -0.01137   2.07746
   A16        2.10062  -0.02083   0.00000  -0.08024  -0.08048   2.02014
    D1       -0.00000   0.00000   0.00000   0.00000   0.00000   0.00000
    D2        3.14159   0.00000   0.00000   0.00000   0.00000   3.14159
    D3        0.00000  -0.00000   0.00000  -0.00000   0.00000   0.00000
    D4        3.14159  -0.00000   0.00000   0.00000   0.00000   3.14159
    D5        0.00000  -0.00000   0.00000  -0.00000  -0.00000   0.00000
    D6        3.14159  -0.00000   0.00000  -0.00000   0.00000   3.14159
    D7        3.14159  -0.00000   0.00000  -0.00000   0.00000   3.14159
    D8        0.00000  -0.00000   0.00000  -0.00000  -0.00000   0.00000
    D9       -0.00000   0.00000   0.00000  -0.00000   0.00000   0.00000
   D10        3.14159   0.00000   0.00000  -0.00000   0.00000   3.14159
   D11        3.14159   0.00000   0.00000  -0.00000   0.00000   3.14159
   D12        0.00000   0.00000   0.00000  -0.00000   0.00000   0.00000
   D13        0.00000   0.00000   0.00000   0.00000   0.00000   0.00000
   D14        3.14159   0.00000   0.00000   0.00000   0.00000   3.14159
   D15        3.14159   0.00000   0.00000   0.00000   0.00000   3.14159
   D16       -0.00000   0.00000   0.00000   0.00000   0.00000   0.00000
   D17       -0.00000  -0.00000   0.00000  -0.00000   0.00000   0.00000
   D18        3.14159   0.00000   0.00000  -0.00000   0.00000   3.14159
   D19        3.14159  -0.00000   0.00000  -0.00000   0.00000   3.14159
   D20        0.00000  -0.00000   0.00000  -0.00000   0.00000   0.00000
         Item               Value     Threshold  Converged?
 Maximum Force            0.027855     0.000450     NO 
 RMS     Force            0.007992     0.000300     NO 
 Maximum Displacement     0.103977     0.001800     NO 
 RMS     Displacement     0.035371     0.001200     NO 
 Predicted change in Energy=-5.601136D-03
 GradGradGradGradGradGradGradGradGradGradGradGradGradGradGradGradGradGrad

                          Input orientation:                          
 ---------------------------------------------------------------------
 Center     Atomic      Atomic             Coordinates (Angstroms)
 Number     Number       Type             X           Y           Z
 ---------------------------------------------------------------------
      1          6           0       -1.307120    1.152992   -0.000000
      2          6           0       -0.060700    1.790489   -0.000000
      3          6           0        1.140908    1.079232   -0.000000
      4          6           0        1.161478   -0.305574    0.000000
      5          6           0       -0.054173   -0.974449    0.000000
      6          6           0       -1.234207   -0.231075    0.000000
      7         17           0       -2.740302   -1.173851    0.000000
      8          1           0       -0.008263    2.877546   -0.000000
      9          1           0       -0.062736   -2.063538    0.000000
     10         17           0        2.688909    1.939313   -0.000000
     11          1           0        2.097933   -0.850855   -0.000000
 ---------------------------------------------------------------------
                    Distance matrix (angstroms):
                    1          2          3          4          5
     1  C    0.000000
     2  C    1.399988   0.000000
     3  C    2.449139   1.396334   0.000000
     4  C    2.867297   2.426355   1.384959   0.000000
     5  C    2.468983   2.764945   2.376094   1.387516   0.000000
     6  C    1.385986   2.337486   2.712577   2.396843   1.394663
     7  Cl   2.732802   3.995945   4.487780   3.997222   2.693519
     8  H    2.158962   1.088321   2.134134   3.391246   3.852269
     9  H    3.448848   3.854027   3.365376   2.142227   1.089123
    10  Cl   4.072659   2.753634   1.770889   2.715247   4.001813
    11  H    3.950923   3.411216   2.154329   1.083642   2.155653
                    6          7          8          9         10
     6  C    0.000000
     7  Cl   1.776836   0.000000
     8  H    3.341626   4.886498   0.000000
     9  H    2.174917   2.821506   4.941384   0.000000
    10  Cl   4.483462   6.258444   2.855700   4.857403   0.000000
    11  H    3.389290   4.849004   4.282177   2.477719   2.852067
                   11
    11  H    0.000000
 Stoichiometry    C6H3Cl2(1-)
 Framework group  CS[SG(C6H3Cl2)]
 Deg. of freedom    19
 Full point group                 CS      NOp   2
 Largest Abelian subgroup         CS      NOp   2
 Largest concise Abelian subgroup C1      NOp   1
                         Standard orientation:                         
 ---------------------------------------------------------------------
 Center     Atomic      Atomic             Coordinates (Angstroms)
 Number     Number       Type             X           Y           Z
 ---------------------------------------------------------------------
      1          6           0        1.326066   -0.711776    0.000000
      2          6           0        1.229188    0.684857    0.000000
      3          6           0        0.000000    1.347309    0.000000
      4          6           0       -1.196924    0.650543    0.000000
      5          6           0       -1.142799   -0.735917    0.000000
      6          6           0        0.102773   -1.363321    0.000000
      7         17           0        0.072089   -3.139892    0.000000
      8          1           0        2.133380    1.290564    0.000000
      9          1           0       -2.071364   -1.305088    0.000000
     10         17           0       -0.061777    3.117120    0.000000
     11          1           0       -2.147141    1.171473    0.000000
 ---------------------------------------------------------------------
 Rotational constants (GHZ):           5.8915568           0.6676487           0.5996901
 Standard basis: 6-311++G(d,p) (5D, 7F)
 There are   166 symmetry adapted cartesian basis functions of A'  symmetry.
 There are    55 symmetry adapted cartesian basis functions of A"  symmetry.
 There are   158 symmetry adapted basis functions of A'  symmetry.
 There are    55 symmetry adapted basis functions of A"  symmetry.
   213 basis functions,   349 primitive gaussians,   221 cartesian basis functions
    37 alpha electrons       37 beta electrons
       nuclear repulsion energy       433.7061937787 Hartrees.
 NAtoms=   11 NActive=   11 NUniq=   11 SFac= 1.00D+00 NAtFMM=   60 NAOKFM=F Big=F
 Integral buffers will be    131072 words long.
 Raffenetti 2 integral format.
 Two-electron integral symmetry is turned on.
 One-electron integrals computed using PRISM.
 NBasis=   213 RedAO= T EigKep=  1.62D-06  NBF=   158    55
 NBsUse=   213 1.00D-06 EigRej= -1.00D+00 NBFU=   158    55
 Initial guess from the checkpoint file:  "frequency_chks/124trichlorobenzene_anion_product_Freq.chk"
 B after Tr=     0.000000   -0.000000    0.000000
         Rot=    0.860220    0.000000   -0.000000   -0.509922 Ang= -61.32 deg.
 Initial guess orbital symmetries:
       Occupied  (A') (A') (A') (A') (A') (A') (A') (A') (A') (A')
                 (A') (A") (A') (A') (A") (A') (A') (A') (A') (A')
                 (A') (A') (A') (A') (A') (A') (A') (A") (A') (A")
                 (A') (A') (A") (A') (A") (A") (A')
       Virtual   (A') (A') (A') (A') (A') (A") (A") (A') (A") (A")
                 (A') (A') (A') (A') (A") (A') (A') (A") (A') (A')
                 (A') (A") (A") (A') (A") (A') (A') (A") (A') (A')
                 (A') (A') (A') (A') (A") (A') (A') (A') (A') (A')
                 (A') (A') (A') (A') (A') (A') (A') (A') (A') (A")
                 (A") (A') (A') (A') (A') (A") (A') (A') (A") (A")
                 (A') (A") (A") (A') (A') (A') (A") (A') (A') (A')
                 (A') (A') (A") (A') (A') (A') (A') (A') (A") (A")
                 (A') (A") (A') (A') (A') (A') (A') (A') (A") (A')
                 (A") (A') (A") (A') (A") (A') (A') (A') (A") (A")
                 (A') (A') (A') (A') (A") (A') (A") (A') (A') (A")
                 (A') (A') (A") (A') (A") (A") (A') (A') (A") (A')
                 (A') (A') (A") (A') (A") (A') (A") (A") (A') (A')
                 (A') (A') (A') (A') (A') (A') (A') (A") (A') (A')
                 (A') (A") (A") (A') (A") (A") (A') (A") (A') (A')
                 (A') (A') (A') (A') (A') (A') (A') (A') (A') (A')
                 (A') (A') (A') (A') (A') (A') (A') (A') (A") (A")
                 (A') (A') (A') (A') (A') (A')
 ExpMin= 3.60D-02 ExpMax= 1.06D+05 ExpMxC= 3.62D+03 IAcc=3 IRadAn=         5 AccDes= 0.00D+00
 Harris functional with IExCor= 1009 and IRadAn=       5 diagonalized for initial guess.
 HarFok:  IExCor= 1009 AccDes= 0.00D+00 IRadAn=         5 IDoV= 1 UseB2=F ITyADJ=14
 ICtDFT=  3500011 ScaDFX=  1.000000  1.000000  1.000000  1.000000
 FoFCou: FMM=F IPFlag=           0 FMFlag=      100000 FMFlg1=           0
         NFxFlg=           0 DoJE=T BraDBF=F KetDBF=T FulRan=T
         wScrn=  0.000000 ICntrl=       500 IOpCl=  0 I1Cent=   200000004 NGrid=           0
         NMat0=    1 NMatS0=      1 NMatT0=    0 NMatD0=    1 NMtDS0=    0 NMtDT0=    0
 Petite list used in FoFCou.
 Keep R1 ints in memory in symmetry-blocked form, NReq=396964985.
 Requested convergence on RMS density matrix=1.00D-08 within 128 cycles.
 Requested convergence on MAX density matrix=1.00D-06.
 Requested convergence on             energy=1.00D-06.
 No special actions if energy rises.
 SCF Done:  E(RM062X) =  -1150.78754856     A.U. after   15 cycles
            NFock= 15  Conv=0.99D-08     -V/T= 2.0024
 Calling FoFJK, ICntrl=      2127 FMM=F ISym2X=1 I1Cent= 0 IOpClX= 0 NMat=1 NMatS=1 NMatT=0.
 ***** Axes restored to original set *****
 -------------------------------------------------------------------
 Center     Atomic                   Forces (Hartrees/Bohr)
 Number     Number              X              Y              Z
 -------------------------------------------------------------------
      1        6          -0.012113248   -0.001075850   -0.000000000
      2        6           0.007854819   -0.002308204    0.000000000
      3        6          -0.008266324    0.001627070   -0.000000000
      4        6           0.005513373   -0.000323092    0.000000000
      5        6          -0.006513965   -0.007770607   -0.000000000
      6        6           0.018719974    0.012878348   -0.000000000
      7       17          -0.009869055   -0.008387298   -0.000000000
      8        1           0.001876704    0.000942551    0.000000000
      9        1          -0.000801354    0.001581343   -0.000000000
     10       17           0.003758301    0.002261008    0.000000000
     11        1          -0.000159224    0.000574732   -0.000000000
 -------------------------------------------------------------------
 Cartesian Forces:  Max     0.018719974 RMS     0.005852711

 GradGradGradGradGradGradGradGradGradGradGradGradGradGradGradGradGradGrad
 Berny optimization.
 Using GEDIIS/GDIIS optimizer.
 FormGI is forming the generalized inverse of G from B-inverse, IUseBI=4.
 Internal  Forces:  Max     0.012814695 RMS     0.002971064
 Search for a local minimum.
 Step number   2 out of a maximum of   57
 All quantities printed in internal units (Hartrees-Bohrs-Radians)
 Mixed Optimization -- RFO/linear search
 Update second derivatives using D2CorX and points    1    2
 DE= -6.85D-03 DEPred=-5.60D-03 R= 1.22D+00
 TightC=F SS=  1.41D+00  RLast= 2.00D-01 DXNew= 5.0454D-01 6.0122D-01
 Trust test= 1.22D+00 RLast= 2.00D-01 DXMaxT set to 5.05D-01
 ITU=  1  0
 Use linear search instead of GDIIS.
     Eigenvalues ---    0.02087   0.02089   0.02092   0.02096   0.02096
     Eigenvalues ---    0.02098   0.02102   0.02112   0.14999   0.16000
     Eigenvalues ---    0.16145   0.17885   0.22410   0.23484   0.24954
     Eigenvalues ---    0.25142   0.29785   0.30676   0.35687   0.35726
     Eigenvalues ---    0.35977   0.41480   0.42612   0.45305   0.45659
     Eigenvalues ---    0.45774   0.50629
 RFO step:  Lambda=-1.14732777D-03 EMin= 2.08650307D-02
 Quartic linear search produced a step of  0.33718.
 Iteration  1 RMS(Cart)=  0.01704665 RMS(Int)=  0.00026118
 Iteration  2 RMS(Cart)=  0.00035176 RMS(Int)=  0.00012081
 Iteration  3 RMS(Cart)=  0.00000005 RMS(Int)=  0.00012081
 ClnCor:  largest displacement from symmetrization is 3.59D-09 for atom    11.
 Variable       Old X    -DE/DX   Delta X   Delta X   Delta X     New X
                                 (Linear)    (Quad)   (Total)
    R1        2.64559   0.00683   0.00140   0.01858   0.02004   2.66564
    R2        2.61913  -0.00009  -0.00752   0.00513  -0.00220   2.61693
    R3        2.63869  -0.00317  -0.00239  -0.00766  -0.01017   2.62851
    R4        2.05663   0.00103   0.00404   0.00087   0.00491   2.06154
    R5        2.61719   0.00182  -0.00975   0.01245   0.00251   2.61971
    R6        3.34650   0.00438   0.01072   0.01138   0.02209   3.36859
    R7        2.62203   0.00387  -0.00739   0.01682   0.00936   2.63138
    R8        2.04779  -0.00043   0.00069  -0.00210  -0.00141   2.04637
    R9        2.63553  -0.00120  -0.00328  -0.00099  -0.00414   2.63139
   R10        2.05814  -0.00158   0.00419  -0.00897  -0.00478   2.05336
   R11        3.35773   0.01281   0.01582   0.04449   0.06032   3.41805
    A1        1.99094  -0.00619  -0.03557  -0.00644  -0.04162   1.94932
    A2        2.13436   0.00186   0.01339   0.00048   0.01380   2.14816
    A3        2.09177   0.00096   0.00173   0.00862   0.01038   2.10216
    A4        2.05705  -0.00282  -0.01511  -0.00910  -0.02418   2.03287
    A5        2.12011   0.00199   0.00932   0.00375   0.01274   2.13285
    A6        2.10000  -0.00123   0.00157  -0.00789  -0.00616   2.09384
    A7        2.06308  -0.00076  -0.01089   0.00414  -0.00658   2.05650
    A8        2.05895  -0.00199  -0.01215  -0.00161  -0.01405   2.04491
    A9        2.11294   0.00058   0.00490  -0.00173   0.00331   2.11625
   A10        2.11129   0.00142   0.00726   0.00333   0.01073   2.12203
   A11        2.07642  -0.00205  -0.00596  -0.00679  -0.01272   2.06371
   A12        2.08167   0.00187  -0.00296   0.01519   0.01222   2.09389
   A13        2.12509   0.00018   0.00892  -0.00840   0.00050   2.12559
   A14        2.18559   0.00638   0.03097   0.01060   0.04185   2.22744
   A15        2.07746  -0.00006  -0.00383   0.00247  -0.00150   2.07596
   A16        2.02014  -0.00632  -0.02714  -0.01307  -0.04035   1.97978
    D1        0.00000   0.00000   0.00000   0.00000   0.00000   0.00000
    D2        3.14159  -0.00000   0.00000  -0.00000   0.00000   3.14159
    D3        0.00000   0.00000   0.00000   0.00000   0.00000   0.00000
    D4        3.14159   0.00000   0.00000   0.00000   0.00000   3.14159
    D5        0.00000  -0.00000   0.00000  -0.00000   0.00000   0.00000
    D6        3.14159  -0.00000   0.00000  -0.00000   0.00000   3.14159
    D7        3.14159  -0.00000   0.00000  -0.00000   0.00000   3.14159
    D8        0.00000  -0.00000   0.00000  -0.00000   0.00000   0.00000
    D9        0.00000   0.00000   0.00000   0.00000   0.00000   0.00000
   D10        3.14159   0.00000   0.00000   0.00000   0.00000   3.14159
   D11        3.14159   0.00000   0.00000   0.00000   0.00000   3.14159
   D12        0.00000   0.00000   0.00000   0.00000   0.00000   0.00000
   D13        0.00000   0.00000   0.00000  -0.00000   0.00000   0.00000
   D14        3.14159  -0.00000   0.00000  -0.00000   0.00000   3.14159
   D15        3.14159   0.00000   0.00000   0.00000   0.00000   3.14159
   D16        0.00000  -0.00000   0.00000  -0.00000   0.00000   0.00000
   D17        0.00000  -0.00000   0.00000  -0.00000   0.00000   0.00000
   D18        3.14159  -0.00000   0.00000  -0.00000   0.00000   3.14159
   D19        3.14159  -0.00000   0.00000   0.00000   0.00000   3.14159
   D20        0.00000  -0.00000   0.00000  -0.00000   0.00000   0.00000
         Item               Value     Threshold  Converged?
 Maximum Force            0.012815     0.000450     NO 
 RMS     Force            0.002971     0.000300     NO 
 Maximum Displacement     0.064088     0.001800     NO 
 RMS     Displacement     0.017151     0.001200     NO 
 Predicted change in Energy=-1.092275D-03
 GradGradGradGradGradGradGradGradGradGradGradGradGradGradGradGradGradGrad

                          Input orientation:                          
 ---------------------------------------------------------------------
 Center     Atomic      Atomic             Coordinates (Angstroms)
 Number     Number       Type             X           Y           Z
 ---------------------------------------------------------------------
      1          6           0       -1.329278    1.167808    0.000000
      2          6           0       -0.062670    1.788677    0.000000
      3          6           0        1.132020    1.076316    0.000000
      4          6           0        1.165808   -0.309561    0.000000
      5          6           0       -0.057208   -0.975293    0.000000
      6          6           0       -1.222417   -0.212883    0.000000
      7         17           0       -2.732980   -1.207765    0.000000
      8          1           0        0.019723    2.876480    0.000000
      9          1           0       -0.083943   -2.061557    0.000000
     10         17           0        2.687690    1.946653    0.000000
     11          1           0        2.104983   -0.848645    0.000000
 ---------------------------------------------------------------------
                    Distance matrix (angstroms):
                    1          2          3          4          5
     1  C    0.000000
     2  C    1.410594   0.000000
     3  C    2.462998   1.390950   0.000000
     4  C    2.899668   2.431411   1.386289   0.000000
     5  C    2.492197   2.763976   2.371364   1.392468   0.000000
     6  C    1.384821   2.313278   2.684289   2.390181   1.392473
     7  Cl   2.759299   4.013630   4.489461   4.000915   2.685852
     8  H    2.177008   1.090918   2.116080   3.385907   3.852542
     9  H    3.461164   3.850293   3.365236   2.152061   1.086592
    10  Cl   4.091776   2.754893   1.782580   2.721511   4.009019
    11  H    3.982491   3.413823   2.156881   1.082895   2.165896
                    6          7          8          9         10
     6  C    0.000000
     7  Cl   1.808754   0.000000
     8  H    3.329726   4.925285   0.000000
     9  H    2.171109   2.783228   4.939125   0.000000
    10  Cl   4.466825   6.271683   2.825354   4.873160   0.000000
    11  H    3.387592   4.851273   4.269059   2.502509   2.855388
                   11
    11  H    0.000000
 Stoichiometry    C6H3Cl2(1-)
 Framework group  CS[SG(C6H3Cl2)]
 Deg. of freedom    19
 Full point group                 CS      NOp   2
 Largest Abelian subgroup         CS      NOp   2
 Largest concise Abelian subgroup C1      NOp   1
                         Standard orientation:                         
 ---------------------------------------------------------------------
 Center     Atomic      Atomic             Coordinates (Angstroms)
 Number     Number       Type             X           Y           Z
 ---------------------------------------------------------------------
      1          6           0        1.356835   -0.715164    0.000000
      2          6           0        1.229337    0.689656    0.000000
      3          6           0        0.000000    1.340403    0.000000
      4          6           0       -1.201739    0.649303    0.000000
      5          6           0       -1.135222   -0.741576    0.000000
      6          6           0        0.121565   -1.341132    0.000000
      7         17           0        0.056218   -3.148705    0.000000
      8          1           0        2.116025    1.325177    0.000000
      9          1           0       -2.049509   -1.328740    0.000000
     10         17           0       -0.064505    3.121816    0.000000
     11          1           0       -2.150276    1.171739    0.000000
 ---------------------------------------------------------------------
 Rotational constants (GHZ):           5.8367501           0.6655791           0.5974503
 Standard basis: 6-311++G(d,p) (5D, 7F)
 There are   166 symmetry adapted cartesian basis functions of A'  symmetry.
 There are    55 symmetry adapted cartesian basis functions of A"  symmetry.
 There are   158 symmetry adapted basis functions of A'  symmetry.
 There are    55 symmetry adapted basis functions of A"  symmetry.
   213 basis functions,   349 primitive gaussians,   221 cartesian basis functions
    37 alpha electrons       37 beta electrons
       nuclear repulsion energy       432.5651005758 Hartrees.
 NAtoms=   11 NActive=   11 NUniq=   11 SFac= 1.00D+00 NAtFMM=   60 NAOKFM=F Big=F
 Integral buffers will be    131072 words long.
 Raffenetti 2 integral format.
 Two-electron integral symmetry is turned on.
 One-electron integrals computed using PRISM.
 NBasis=   213 RedAO= T EigKep=  1.65D-06  NBF=   158    55
 NBsUse=   213 1.00D-06 EigRej= -1.00D+00 NBFU=   158    55
 Initial guess from the checkpoint file:  "frequency_chks/124trichlorobenzene_anion_product_Freq.chk"
 B after Tr=    -0.000000   -0.000000    0.000000
         Rot=    1.000000    0.000000    0.000000    0.000160 Ang=   0.02 deg.
 Initial guess orbital symmetries:
       Occupied  (A') (A') (A') (A') (A') (A') (A') (A') (A') (A')
                 (A') (A') (A") (A') (A") (A') (A') (A') (A') (A')
                 (A') (A') (A') (A') (A') (A') (A') (A") (A') (A")
                 (A') (A') (A") (A') (A") (A") (A')
       Virtual   (A') (A') (A') (A') (A') (A") (A") (A') (A") (A')
                 (A") (A') (A') (A') (A") (A') (A') (A") (A') (A')
                 (A') (A") (A") (A') (A") (A') (A') (A') (A") (A')
                 (A') (A') (A') (A') (A') (A") (A') (A') (A') (A')
                 (A') (A') (A') (A') (A') (A') (A') (A') (A') (A")
                 (A") (A') (A') (A') (A') (A") (A') (A') (A") (A")
                 (A') (A") (A") (A') (A') (A') (A") (A') (A') (A')
                 (A') (A') (A') (A") (A') (A') (A') (A') (A") (A')
                 (A") (A") (A') (A') (A') (A') (A') (A') (A") (A')
                 (A") (A') (A") (A') (A") (A') (A') (A') (A") (A")
                 (A') (A') (A') (A') (A") (A") (A') (A') (A') (A")
                 (A') (A') (A") (A') (A") (A") (A') (A') (A") (A')
                 (A') (A') (A") (A') (A") (A') (A") (A") (A') (A')
                 (A') (A') (A') (A') (A') (A') (A') (A") (A') (A')
                 (A') (A") (A") (A') (A") (A") (A') (A") (A') (A')
                 (A') (A') (A') (A') (A') (A') (A') (A') (A') (A')
                 (A') (A') (A') (A') (A') (A') (A') (A') (A") (A")
                 (A') (A') (A') (A') (A') (A')
 ExpMin= 3.60D-02 ExpMax= 1.06D+05 ExpMxC= 3.62D+03 IAcc=3 IRadAn=         5 AccDes= 0.00D+00
 Harris functional with IExCor= 1009 and IRadAn=       5 diagonalized for initial guess.
 HarFok:  IExCor= 1009 AccDes= 0.00D+00 IRadAn=         5 IDoV= 1 UseB2=F ITyADJ=14
 ICtDFT=  3500011 ScaDFX=  1.000000  1.000000  1.000000  1.000000
 FoFCou: FMM=F IPFlag=           0 FMFlag=      100000 FMFlg1=           0
         NFxFlg=           0 DoJE=T BraDBF=F KetDBF=T FulRan=T
         wScrn=  0.000000 ICntrl=       500 IOpCl=  0 I1Cent=   200000004 NGrid=           0
         NMat0=    1 NMatS0=      1 NMatT0=    0 NMatD0=    1 NMtDS0=    0 NMtDT0=    0
 Petite list used in FoFCou.
 Keep R1 ints in memory in symmetry-blocked form, NReq=396964985.
 Requested convergence on RMS density matrix=1.00D-08 within 128 cycles.
 Requested convergence on MAX density matrix=1.00D-06.
 Requested convergence on             energy=1.00D-06.
 No special actions if energy rises.
 SCF Done:  E(RM062X) =  -1150.78876755     A.U. after   15 cycles
            NFock= 15  Conv=0.49D-08     -V/T= 2.0025
 Calling FoFJK, ICntrl=      2127 FMM=F ISym2X=1 I1Cent= 0 IOpClX= 0 NMat=1 NMatS=1 NMatT=0.
 ***** Axes restored to original set *****
 -------------------------------------------------------------------
 Center     Atomic                   Forces (Hartrees/Bohr)
 Number     Number              X              Y              Z
 -------------------------------------------------------------------
      1        6          -0.000745656   -0.002868559   -0.000000000
      2        6           0.002129447    0.002225000   -0.000000000
      3        6          -0.001331076   -0.000083683   -0.000000000
      4        6           0.000341361   -0.000889140   -0.000000000
      5        6           0.000571136   -0.001533486   -0.000000000
      6        6           0.004909445    0.005017137   -0.000000000
      7       17          -0.004847072   -0.002751962   -0.000000000
      8        1          -0.000626815   -0.000464150   -0.000000000
      9        1          -0.000430983    0.000844176   -0.000000000
     10       17           0.000154956    0.000359918   -0.000000000
     11        1          -0.000124743    0.000144748   -0.000000000
 -------------------------------------------------------------------
 Cartesian Forces:  Max     0.005017137 RMS     0.001789464

 GradGradGradGradGradGradGradGradGradGradGradGradGradGradGradGradGradGrad
 Berny optimization.
 Using GEDIIS/GDIIS optimizer.
 FormGI is forming the generalized inverse of G from B-inverse, IUseBI=4.
 Internal  Forces:  Max     0.005561227 RMS     0.000962391
 Search for a local minimum.
 Step number   3 out of a maximum of   57
 All quantities printed in internal units (Hartrees-Bohrs-Radians)
 Mixed Optimization -- En-DIIS/RFO-DIIS
 Update second derivatives using D2CorX and points    1    2    3
 DE= -1.22D-03 DEPred=-1.09D-03 R= 1.12D+00
 TightC=F SS=  1.41D+00  RLast= 1.08D-01 DXNew= 8.4853D-01 3.2412D-01
 Trust test= 1.12D+00 RLast= 1.08D-01 DXMaxT set to 5.05D-01
 ITU=  1  1  0
 Use linear search instead of GDIIS.
     Eigenvalues ---    0.02087   0.02089   0.02092   0.02096   0.02096
     Eigenvalues ---    0.02098   0.02102   0.02111   0.13938   0.16006
     Eigenvalues ---    0.16228   0.16522   0.22465   0.23667   0.25105
     Eigenvalues ---    0.25153   0.29661   0.31558   0.35687   0.35755
     Eigenvalues ---    0.36195   0.41371   0.43154   0.45114   0.45683
     Eigenvalues ---    0.45956   0.50461
 RFO step:  Lambda=-1.32320630D-04 EMin= 2.08650324D-02
 Quartic linear search produced a step of  0.20411.
 Iteration  1 RMS(Cart)=  0.00356944 RMS(Int)=  0.00001362
 Iteration  2 RMS(Cart)=  0.00001010 RMS(Int)=  0.00001095
 Iteration  3 RMS(Cart)=  0.00000000 RMS(Int)=  0.00001095
 ClnCor:  largest displacement from symmetrization is 2.26D-10 for atom    11.
 Variable       Old X    -DE/DX   Delta X   Delta X   Delta X     New X
                                 (Linear)    (Quad)   (Total)
    R1        2.66564   0.00091   0.00409  -0.00008   0.00401   2.66965
    R2        2.61693  -0.00192  -0.00045  -0.00565  -0.00608   2.61085
    R3        2.62851  -0.00039  -0.00208   0.00014  -0.00195   2.62657
    R4        2.06154  -0.00051   0.00100  -0.00185  -0.00085   2.06069
    R5        2.61971   0.00111   0.00051   0.00162   0.00211   2.62182
    R6        3.36859   0.00031   0.00451  -0.00038   0.00413   3.37272
    R7        2.63138   0.00017   0.00191  -0.00157   0.00034   2.63172
    R8        2.04637  -0.00018  -0.00029  -0.00034  -0.00063   2.04575
    R9        2.63139   0.00029  -0.00084   0.00077  -0.00006   2.63133
   R10        2.05336  -0.00083  -0.00098  -0.00168  -0.00266   2.05070
   R11        3.41805   0.00556   0.01231   0.01581   0.02812   3.44617
    A1        1.94932   0.00065  -0.00850   0.00411  -0.00436   1.94496
    A2        2.14816  -0.00101   0.00282  -0.00526  -0.00245   2.14570
    A3        2.10216  -0.00010   0.00212  -0.00307  -0.00094   2.10122
    A4        2.03287   0.00111  -0.00494   0.00832   0.00339   2.03627
    A5        2.13285   0.00044   0.00260   0.00223   0.00480   2.13765
    A6        2.09384  -0.00062  -0.00126  -0.00233  -0.00357   2.09027
    A7        2.05650   0.00017  -0.00134   0.00010  -0.00123   2.05527
    A8        2.04491  -0.00020  -0.00287  -0.00000  -0.00289   2.04201
    A9        2.11625   0.00004   0.00068  -0.00012   0.00056   2.11682
   A10        2.12203   0.00016   0.00219   0.00013   0.00233   2.12435
   A11        2.06371  -0.00049  -0.00260  -0.00171  -0.00429   2.05942
   A12        2.09389   0.00071   0.00249   0.00296   0.00545   2.09933
   A13        2.12559  -0.00022   0.00010  -0.00125  -0.00116   2.12443
   A14        2.22744   0.00060   0.00854   0.00062   0.00919   2.23663
   A15        2.07596  -0.00094  -0.00031  -0.00447  -0.00479   2.07117
   A16        1.97978   0.00034  -0.00824   0.00385  -0.00440   1.97538
    D1        0.00000  -0.00000   0.00000  -0.00000   0.00000   0.00000
    D2        3.14159  -0.00000   0.00000  -0.00000   0.00000   3.14159
    D3        0.00000  -0.00000   0.00000  -0.00000   0.00000   0.00000
    D4        3.14159  -0.00000   0.00000  -0.00000   0.00000   3.14159
    D5        0.00000   0.00000   0.00000   0.00000   0.00000   0.00000
    D6        3.14159   0.00000   0.00000   0.00000   0.00000   3.14159
    D7        3.14159   0.00000   0.00000   0.00000   0.00000   3.14159
    D8        0.00000   0.00000   0.00000   0.00000   0.00000   0.00000
    D9        0.00000  -0.00000   0.00000  -0.00000   0.00000   0.00000
   D10        3.14159  -0.00000   0.00000  -0.00000   0.00000   3.14159
   D11        3.14159  -0.00000   0.00000  -0.00000   0.00000   3.14159
   D12        0.00000  -0.00000   0.00000  -0.00000   0.00000   0.00000
   D13        0.00000  -0.00000   0.00000  -0.00000   0.00000   0.00000
   D14        3.14159  -0.00000   0.00000  -0.00000   0.00000   3.14159
   D15        3.14159  -0.00000   0.00000  -0.00000   0.00000   3.14159
   D16        0.00000  -0.00000   0.00000  -0.00000   0.00000   0.00000
   D17        0.00000   0.00000   0.00000   0.00000   0.00000   0.00000
   D18        3.14159   0.00000   0.00000   0.00000   0.00000   3.14159
   D19        3.14159   0.00000   0.00000   0.00000   0.00000   3.14159
   D20        0.00000   0.00000   0.00000   0.00000   0.00000   0.00000
         Item               Value     Threshold  Converged?
 Maximum Force            0.005561     0.000450     NO 
 RMS     Force            0.000962     0.000300     NO 
 Maximum Displacement     0.013527     0.001800     NO 
 RMS     Displacement     0.003567     0.001200     NO 
 Predicted change in Energy=-9.932205D-05
 GradGradGradGradGradGradGradGradGradGradGradGradGradGradGradGradGradGrad

                          Input orientation:                          
 ---------------------------------------------------------------------
 Center     Atomic      Atomic             Coordinates (Angstroms)
 Number     Number       Type             X           Y           Z
 ---------------------------------------------------------------------
      1          6           0       -1.329858    1.167863    0.000000
      2          6           0       -0.061482    1.789947    0.000000
      3          6           0        1.130730    1.075450    0.000000
      4          6           0        1.168107   -0.311454    0.000000
      5          6           0       -0.055282   -0.976876    0.000000
      6          6           0       -1.216935   -0.209116    0.000000
      7         17           0       -2.740138   -1.211861    0.000000
      8          1           0        0.019614    2.877396    0.000000
      9          1           0       -0.088242   -2.061560    0.000000
     10         17           0        2.687143    1.948934    0.000000
     11          1           0        2.108071   -0.848491    0.000000
 ---------------------------------------------------------------------
                    Distance matrix (angstroms):
                    1          2          3          4          5
     1  C    0.000000
     2  C    1.412716   0.000000
     3  C    2.462323   1.389919   0.000000
     4  C    2.903137   2.434702   1.387408   0.000000
     5  C    2.494885   2.766830   2.370373   1.392647   0.000000
     6  C    1.381601   2.308966   2.676125   2.387236   1.392442
     7  Cl   2.766220   4.023189   4.496156   4.010625   2.695120
     8  H    2.177975   1.090468   2.116976   3.389366   3.855000
     9  H    3.459882   3.851600   3.365520   2.154364   1.085185
    10  Cl   4.092233   2.753219   1.784767   2.723384   4.010144
    11  H    3.985604   3.415891   2.157949   1.082562   2.167159
                    6          7          8          9         10
     6  C    0.000000
     7  Cl   1.823635   0.000000
     8  H    3.324997   4.933381   0.000000
     9  H    2.169216   2.784698   4.940134   0.000000
    10  Cl   4.460830   6.280605   2.824492   4.877173   0.000000
    11  H    3.385922   4.861807   4.271286   2.509048   2.856731
                   11
    11  H    0.000000
 Stoichiometry    C6H3Cl2(1-)
 Framework group  CS[SG(C6H3Cl2)]
 Deg. of freedom    19
 Full point group                 CS      NOp   2
 Largest Abelian subgroup         CS      NOp   2
 Largest concise Abelian subgroup C1      NOp   1
                         Standard orientation:                         
 ---------------------------------------------------------------------
 Center     Atomic      Atomic             Coordinates (Angstroms)
 Number     Number       Type             X           Y           Z
 ---------------------------------------------------------------------
      1          6           0        1.286375   -0.834891    0.000000
      2          6           0        1.287381    0.577825    0.000000
      3          6           0        0.121439    1.334432    0.000000
      4          6           0       -1.140632    0.758170    0.000000
      5          6           0       -1.200344   -0.633196    0.000000
      6          6           0        0.000000   -1.338936    0.000000
      7         17           0       -0.230845   -3.147902    0.000000
      8          1           0        2.228406    1.128818    0.000000
      9          1           0       -2.160051   -1.139741    0.000000
     10         17           0        0.221586    3.116387    0.000000
     11          1           0       -2.036276    1.366253    0.000000
 ---------------------------------------------------------------------
 Rotational constants (GHZ):           5.8252946           0.6640450           0.5960942
 Standard basis: 6-311++G(d,p) (5D, 7F)
 There are   166 symmetry adapted cartesian basis functions of A'  symmetry.
 There are    55 symmetry adapted cartesian basis functions of A"  symmetry.
 There are   158 symmetry adapted basis functions of A'  symmetry.
 There are    55 symmetry adapted basis functions of A"  symmetry.
   213 basis functions,   349 primitive gaussians,   221 cartesian basis functions
    37 alpha electrons       37 beta electrons
       nuclear repulsion energy       432.0769610079 Hartrees.
 NAtoms=   11 NActive=   11 NUniq=   11 SFac= 1.00D+00 NAtFMM=   60 NAOKFM=F Big=F
 Integral buffers will be    131072 words long.
 Raffenetti 2 integral format.
 Two-electron integral symmetry is turned on.
 One-electron integrals computed using PRISM.
 NBasis=   213 RedAO= T EigKep=  1.66D-06  NBF=   158    55
 NBsUse=   213 1.00D-06 EigRej= -1.00D+00 NBFU=   158    55
 Initial guess from the checkpoint file:  "frequency_chks/124trichlorobenzene_anion_product_Freq.chk"
 B after Tr=    -0.000000    0.000000   -0.000000
         Rot=    0.998959   -0.000000    0.000000    0.045609 Ang=   5.23 deg.
 Initial guess orbital symmetries:
       Occupied  (A') (A') (A') (A') (A') (A') (A') (A') (A') (A')
                 (A') (A') (A") (A') (A") (A') (A') (A') (A') (A')
                 (A') (A') (A') (A') (A') (A') (A') (A") (A') (A")
                 (A') (A') (A") (A') (A") (A") (A')
       Virtual   (A') (A') (A') (A') (A') (A") (A") (A') (A") (A')
                 (A") (A') (A') (A') (A") (A') (A') (A") (A') (A')
                 (A') (A") (A") (A') (A") (A') (A') (A') (A") (A')
                 (A') (A') (A') (A') (A") (A') (A') (A') (A') (A')
                 (A') (A') (A') (A') (A') (A') (A') (A') (A') (A")
                 (A') (A") (A') (A') (A') (A") (A') (A') (A") (A")
                 (A') (A") (A") (A') (A') (A') (A") (A') (A') (A')
                 (A') (A') (A') (A") (A') (A') (A') (A') (A") (A')
                 (A") (A") (A') (A') (A') (A') (A') (A') (A") (A')
                 (A") (A') (A") (A') (A") (A') (A') (A') (A") (A")
                 (A') (A') (A') (A') (A") (A") (A') (A') (A') (A")
                 (A') (A') (A") (A") (A') (A') (A") (A') (A') (A")
                 (A') (A') (A") (A') (A") (A") (A') (A") (A') (A')
                 (A') (A') (A') (A') (A') (A') (A') (A") (A') (A')
                 (A') (A") (A") (A') (A") (A") (A') (A") (A') (A')
                 (A') (A') (A') (A') (A') (A') (A') (A') (A') (A')
                 (A') (A') (A') (A') (A') (A') (A') (A') (A") (A")
                 (A') (A') (A') (A') (A') (A')
 Keep R1 ints in memory in symmetry-blocked form, NReq=396964985.
 Requested convergence on RMS density matrix=1.00D-08 within 128 cycles.
 Requested convergence on MAX density matrix=1.00D-06.
 Requested convergence on             energy=1.00D-06.
 No special actions if energy rises.
 SCF Done:  E(RM062X) =  -1150.78888712     A.U. after   15 cycles
            NFock= 15  Conv=0.46D-08     -V/T= 2.0025
 Calling FoFJK, ICntrl=      2127 FMM=F ISym2X=1 I1Cent= 0 IOpClX= 0 NMat=1 NMatS=1 NMatT=0.
 ***** Axes restored to original set *****
 -------------------------------------------------------------------
 Center     Atomic                   Forces (Hartrees/Bohr)
 Number     Number              X              Y              Z
 -------------------------------------------------------------------
      1        6           0.000951490   -0.001921451   -0.000000000
      2        6           0.000510926    0.001362270    0.000000000
      3        6           0.000248185    0.000272031    0.000000000
      4        6          -0.000598052   -0.000300903   -0.000000000
      5        6           0.000270223   -0.000203089   -0.000000000
      6        6           0.001158874    0.002210480    0.000000000
      7       17          -0.001818569   -0.001127404   -0.000000000
      8        1          -0.000380175   -0.000317193   -0.000000000
      9        1          -0.000124580    0.000038228    0.000000000
     10       17          -0.000224213   -0.000102817    0.000000000
     11        1           0.000005892    0.000089848    0.000000000
 -------------------------------------------------------------------
 Cartesian Forces:  Max     0.002210480 RMS     0.000749762

 GradGradGradGradGradGradGradGradGradGradGradGradGradGradGradGradGradGrad
 Berny optimization.
 Using GEDIIS/GDIIS optimizer.
 FormGI is forming the generalized inverse of G from B-inverse, IUseBI=4.
 Internal  Forces:  Max     0.002139930 RMS     0.000458579
 Search for a local minimum.
 Step number   4 out of a maximum of   57
 All quantities printed in internal units (Hartrees-Bohrs-Radians)
 Mixed Optimization -- En-DIIS/RFO-DIIS
 Swapping is turned off.
 Update second derivatives using D2CorX and points    1    2    3    4
 DE= -1.20D-04 DEPred=-9.93D-05 R= 1.20D+00
 TightC=F SS=  1.41D+00  RLast= 3.38D-02 DXNew= 8.4853D-01 1.0141D-01
 Trust test= 1.20D+00 RLast= 3.38D-02 DXMaxT set to 5.05D-01
 ITU=  1  1  1  0
     Eigenvalues ---    0.02087   0.02089   0.02092   0.02096   0.02096
     Eigenvalues ---    0.02098   0.02102   0.02111   0.11269   0.16038
     Eigenvalues ---    0.16131   0.16297   0.22853   0.23538   0.25122
     Eigenvalues ---    0.25571   0.26995   0.30169   0.35688   0.35756
     Eigenvalues ---    0.35941   0.41279   0.42701   0.44834   0.45678
     Eigenvalues ---    0.45743   0.50707
 En-DIIS/RFO-DIIS/Sim-DIIS IScMMF=       -3 using points:     4    3
 RFO step:  Lambda=-5.33223139D-05.
 DidBck=F Rises=F RFO-DIIS coefs:    1.48278   -0.48278
 Iteration  1 RMS(Cart)=  0.00239956 RMS(Int)=  0.00000278
 Iteration  2 RMS(Cart)=  0.00000319 RMS(Int)=  0.00000079
 Iteration  3 RMS(Cart)=  0.00000000 RMS(Int)=  0.00000079
 ClnCor:  largest displacement from symmetrization is 4.08D-10 for atom    11.
 Variable       Old X    -DE/DX   Delta X   Delta X   Delta X     New X
                                 (Linear)    (Quad)   (Total)
    R1        2.66965   0.00008   0.00194  -0.00062   0.00131   2.67096
    R2        2.61085  -0.00128  -0.00294  -0.00226  -0.00520   2.60565
    R3        2.62657  -0.00014  -0.00094   0.00001  -0.00093   2.62564
    R4        2.06069  -0.00035  -0.00041  -0.00073  -0.00114   2.05954
    R5        2.62182   0.00051   0.00102   0.00052   0.00154   2.62337
    R6        3.37272  -0.00025   0.00199  -0.00155   0.00044   3.37316
    R7        2.63172  -0.00002   0.00016  -0.00032  -0.00016   2.63156
    R8        2.04575  -0.00004  -0.00030   0.00007  -0.00023   2.04551
    R9        2.63133  -0.00012  -0.00003  -0.00073  -0.00075   2.63058
   R10        2.05070  -0.00003  -0.00128   0.00090  -0.00038   2.05032
   R11        3.44617   0.00214   0.01358   0.00213   0.01570   3.46187
    A1        1.94496   0.00117  -0.00210   0.00513   0.00302   1.94798
    A2        2.14570  -0.00079  -0.00118  -0.00278  -0.00397   2.14173
    A3        2.10122   0.00002  -0.00045  -0.00024  -0.00070   2.10052
    A4        2.03627   0.00077   0.00164   0.00303   0.00467   2.04093
    A5        2.13765  -0.00022   0.00232  -0.00166   0.00066   2.13830
    A6        2.09027   0.00006  -0.00172   0.00128  -0.00044   2.08983
    A7        2.05527   0.00016  -0.00059   0.00038  -0.00021   2.05505
    A8        2.04201   0.00039  -0.00140   0.00290   0.00150   2.04352
    A9        2.11682  -0.00029   0.00027  -0.00208  -0.00181   2.11501
   A10        2.12435  -0.00011   0.00112  -0.00082   0.00030   2.12466
   A11        2.05942  -0.00025  -0.00207  -0.00084  -0.00291   2.05650
   A12        2.09933   0.00025   0.00263   0.00016   0.00279   2.10212
   A13        2.12443   0.00000  -0.00056   0.00068   0.00012   2.12456
   A14        2.23663  -0.00030   0.00444  -0.00274   0.00170   2.23833
   A15        2.07117   0.00007  -0.00231   0.00204  -0.00028   2.07089
   A16        1.97538   0.00023  -0.00213   0.00070  -0.00142   1.97396
    D1        0.00000  -0.00000   0.00000   0.00000   0.00000   0.00000
    D2        3.14159  -0.00000   0.00000   0.00000   0.00000   3.14159
    D3       -0.00000  -0.00000   0.00000   0.00000   0.00000   0.00000
    D4        3.14159   0.00000   0.00000   0.00000   0.00000   3.14159
    D5       -0.00000   0.00000   0.00000  -0.00000   0.00000   0.00000
    D6        3.14159   0.00000   0.00000  -0.00000   0.00000   3.14159
    D7        3.14159  -0.00000   0.00000  -0.00000   0.00000   3.14159
    D8        0.00000  -0.00000   0.00000  -0.00000  -0.00000   0.00000
    D9        0.00000  -0.00000   0.00000  -0.00000   0.00000   0.00000
   D10        3.14159   0.00000   0.00000   0.00000   0.00000   3.14159
   D11        3.14159   0.00000   0.00000   0.00000   0.00000   3.14159
   D12       -0.00000   0.00000   0.00000   0.00000   0.00000   0.00000
   D13       -0.00000  -0.00000   0.00000   0.00000   0.00000   0.00000
   D14        3.14159  -0.00000   0.00000   0.00000   0.00000   3.14159
   D15        3.14159  -0.00000   0.00000   0.00000   0.00000   3.14159
   D16        0.00000  -0.00000   0.00000   0.00000  -0.00000   0.00000
   D17        0.00000  -0.00000   0.00000  -0.00000   0.00000   0.00000
   D18        3.14159  -0.00000   0.00000  -0.00000   0.00000   3.14159
   D19        3.14159   0.00000   0.00000  -0.00000   0.00000   3.14159
   D20        0.00000  -0.00000   0.00000  -0.00000   0.00000   0.00000
         Item               Value     Threshold  Converged?
 Maximum Force            0.002140     0.000450     NO 
 RMS     Force            0.000459     0.000300     NO 
 Maximum Displacement     0.009894     0.001800     NO 
 RMS     Displacement     0.002399     0.001200     NO 
 Predicted change in Energy=-2.666899D-05
 GradGradGradGradGradGradGradGradGradGradGradGradGradGradGradGradGradGrad

                          Input orientation:                          
 ---------------------------------------------------------------------
 Center     Atomic      Atomic             Coordinates (Angstroms)
 Number     Number       Type             X           Y           Z
 ---------------------------------------------------------------------
      1          6           0       -1.327035    1.166086    0.000000
      2          6           0       -0.059760    1.791980    0.000000
      3          6           0        1.131166    1.076299    0.000000
      4          6           0        1.167803   -0.311443   -0.000000
      5          6           0       -0.054876   -0.977994   -0.000000
      6          6           0       -1.214692   -0.208181    0.000000
      7         17           0       -2.745374   -1.214676   -0.000000
      8          1           0        0.017530    2.879099    0.000000
      9          1           0       -0.089819   -2.062415   -0.000000
     10         17           0        2.688450    1.948708    0.000000
     11          1           0        2.108334   -0.847234   -0.000000
 ---------------------------------------------------------------------
                    Distance matrix (angstroms):
                    1          2          3          4          5
     1  C    0.000000
     2  C    1.413410   0.000000
     3  C    2.459841   1.389426   0.000000
     4  C    2.899536   2.435425   1.388225   0.000000
     5  C    2.493084   2.769978   2.372091   1.392564   0.000000
     6  C    1.378851   2.309655   2.674498   2.384731   1.392043
     7  Cl   2.771229   4.031439   4.502902   4.016065   2.700888
     8  H    2.177675   1.089863   2.119027   3.391561   3.857772
     9  H    3.457444   3.854511   3.367837   2.155809   1.084984
    10  Cl   4.091042   2.752676   1.785002   2.724088   4.011412
    11  H    3.981862   3.415565   2.157507   1.082438   2.167159
                    6          7          8          9         10
     6  C    0.000000
     7  Cl   1.831944   0.000000
     8  H    3.324104   4.938889   0.000000
     9  H    2.168761   2.787586   4.942679   0.000000
    10  Cl   4.459450   6.287563   2.828329   4.879333   0.000000
    11  H    3.383917   4.867596   4.272824   2.511681   2.855491
                   11
    11  H    0.000000
 Stoichiometry    C6H3Cl2(1-)
 Framework group  CS[SG(C6H3Cl2)]
 Deg. of freedom    19
 Full point group                 CS      NOp   2
 Largest Abelian subgroup         CS      NOp   2
 Largest concise Abelian subgroup C1      NOp   1
                         Standard orientation:                         
 ---------------------------------------------------------------------
 Center     Atomic      Atomic             Coordinates (Angstroms)
 Number     Number       Type             X           Y           Z
 ---------------------------------------------------------------------
      1          6           0        1.283773   -0.832777   -0.000000
      2          6           0        1.288936    0.580624   -0.000000
      3          6           0        0.122629    1.335762   -0.000000
      4          6           0       -1.139971    0.758692    0.000000
      5          6           0       -1.201255   -0.632523    0.000000
      6          6           0       -0.000000   -1.335923    0.000000
      7         17           0       -0.231247   -3.153213    0.000000
      8          1           0        2.231435    1.127888   -0.000000
      9          1           0       -2.159944   -1.140563    0.000000
     10         17           0        0.221745    3.118010   -0.000000
     11          1           0       -2.034637    1.367990    0.000000
 ---------------------------------------------------------------------
 Rotational constants (GHZ):           5.8275214           0.6627399           0.5950655
 Standard basis: 6-311++G(d,p) (5D, 7F)
 There are   166 symmetry adapted cartesian basis functions of A'  symmetry.
 There are    55 symmetry adapted cartesian basis functions of A"  symmetry.
 There are   158 symmetry adapted basis functions of A'  symmetry.
 There are    55 symmetry adapted basis functions of A"  symmetry.
   213 basis functions,   349 primitive gaussians,   221 cartesian basis functions
    37 alpha electrons       37 beta electrons
       nuclear repulsion energy       431.7993286371 Hartrees.
 NAtoms=   11 NActive=   11 NUniq=   11 SFac= 1.00D+00 NAtFMM=   60 NAOKFM=F Big=F
 Integral buffers will be    131072 words long.
 Raffenetti 2 integral format.
 Two-electron integral symmetry is turned on.
 One-electron integrals computed using PRISM.
 NBasis=   213 RedAO= T EigKep=  1.66D-06  NBF=   158    55
 NBsUse=   213 1.00D-06 EigRej= -1.00D+00 NBFU=   158    55
 Initial guess from the checkpoint file:  "frequency_chks/124trichlorobenzene_anion_product_Freq.chk"
 B after Tr=     0.000000    0.000000   -0.000000
         Rot=    1.000000   -0.000000   -0.000000    0.000019 Ang=   0.00 deg.
 Initial guess orbital symmetries:
       Occupied  (A') (A') (A') (A') (A') (A') (A') (A') (A') (A')
                 (A') (A') (A") (A') (A") (A') (A') (A') (A') (A')
                 (A') (A') (A') (A') (A') (A') (A') (A") (A') (A")
                 (A') (A') (A") (A') (A") (A") (A')
       Virtual   (A') (A') (A') (A') (A') (A") (A") (A') (A") (A')
                 (A") (A') (A') (A') (A") (A') (A') (A") (A') (A')
                 (A') (A") (A') (A") (A") (A') (A') (A') (A") (A')
                 (A') (A') (A') (A') (A") (A') (A') (A') (A') (A')
                 (A') (A') (A') (A') (A') (A') (A') (A') (A') (A")
                 (A') (A") (A') (A') (A') (A') (A") (A') (A") (A")
                 (A') (A") (A") (A') (A') (A') (A") (A') (A') (A')
                 (A') (A') (A') (A") (A') (A') (A') (A') (A") (A')
                 (A") (A') (A") (A') (A') (A') (A') (A') (A") (A')
                 (A") (A') (A") (A') (A") (A') (A') (A') (A") (A")
                 (A') (A') (A') (A') (A") (A") (A') (A') (A') (A")
                 (A') (A') (A") (A") (A') (A') (A") (A') (A') (A")
                 (A') (A') (A") (A') (A") (A") (A') (A") (A') (A')
                 (A') (A') (A') (A') (A') (A') (A') (A") (A') (A')
                 (A') (A") (A") (A') (A") (A") (A') (A") (A') (A')
                 (A') (A') (A') (A') (A') (A') (A') (A') (A') (A')
                 (A') (A') (A') (A') (A') (A') (A') (A') (A") (A")
                 (A') (A') (A') (A') (A') (A')
 Keep R1 ints in memory in symmetry-blocked form, NReq=396964985.
 Requested convergence on RMS density matrix=1.00D-08 within 128 cycles.
 Requested convergence on MAX density matrix=1.00D-06.
 Requested convergence on             energy=1.00D-06.
 No special actions if energy rises.
 SCF Done:  E(RM062X) =  -1150.78891870     A.U. after   13 cycles
            NFock= 13  Conv=0.42D-08     -V/T= 2.0025
 Calling FoFJK, ICntrl=      2127 FMM=F ISym2X=1 I1Cent= 0 IOpClX= 0 NMat=1 NMatS=1 NMatT=0.
 ***** Axes restored to original set *****
 -------------------------------------------------------------------
 Center     Atomic                   Forces (Hartrees/Bohr)
 Number     Number              X              Y              Z
 -------------------------------------------------------------------
      1        6           0.000779281   -0.000633269   -0.000000000
      2        6          -0.000360854    0.000206424    0.000000000
      3        6           0.000451430    0.000124001   -0.000000000
      4        6          -0.000439945   -0.000019344    0.000000000
      5        6           0.000257376   -0.000014636   -0.000000000
      6        6          -0.000291709    0.000859506    0.000000000
      7       17          -0.000236444   -0.000227646   -0.000000000
      8        1          -0.000063687   -0.000063903   -0.000000000
      9        1           0.000061747   -0.000046702   -0.000000000
     10       17          -0.000218058   -0.000173297   -0.000000000
     11        1           0.000060864   -0.000011135   -0.000000000
 -------------------------------------------------------------------
 Cartesian Forces:  Max     0.000859506 RMS     0.000285392

 GradGradGradGradGradGradGradGradGradGradGradGradGradGradGradGradGradGrad
 Berny optimization.
 Using GEDIIS/GDIIS optimizer.
 FormGI is forming the generalized inverse of G from B-inverse, IUseBI=4.
 Internal  Forces:  Max     0.000579868 RMS     0.000156545
 Search for a local minimum.
 Step number   5 out of a maximum of   57
 All quantities printed in internal units (Hartrees-Bohrs-Radians)
 Mixed Optimization -- En-DIIS/RFO-DIIS
 Swapping is turned off.
 Update second derivatives using D2CorX and points    1    2    3    4    5
 DE= -3.16D-05 DEPred=-2.67D-05 R= 1.18D+00
 TightC=F SS=  1.41D+00  RLast= 1.89D-02 DXNew= 8.4853D-01 5.6568D-02
 Trust test= 1.18D+00 RLast= 1.89D-02 DXMaxT set to 5.05D-01
 ITU=  1  1  1  1  0
     Eigenvalues ---    0.02087   0.02089   0.02092   0.02096   0.02096
     Eigenvalues ---    0.02098   0.02102   0.02111   0.10353   0.15561
     Eigenvalues ---    0.16087   0.16273   0.19909   0.23204   0.24338
     Eigenvalues ---    0.25195   0.26533   0.30001   0.35680   0.35709
     Eigenvalues ---    0.36069   0.41092   0.42124   0.44806   0.45681
     Eigenvalues ---    0.45844   0.52699
 En-DIIS/RFO-DIIS/Sim-DIIS IScMMF=       -3 using points:     5    4    3
 RFO step:  Lambda=-5.19247531D-06.
 DidBck=F Rises=F RFO-DIIS coefs:    1.49716   -0.66139    0.16423
 Iteration  1 RMS(Cart)=  0.00087737 RMS(Int)=  0.00000096
 Iteration  2 RMS(Cart)=  0.00000083 RMS(Int)=  0.00000080
 ClnCor:  largest displacement from symmetrization is 2.24D-13 for atom    11.
 Variable       Old X    -DE/DX   Delta X   Delta X   Delta X     New X
                                 (Linear)    (Quad)   (Total)
    R1        2.67096  -0.00031  -0.00001  -0.00073  -0.00073   2.67023
    R2        2.60565  -0.00058  -0.00158  -0.00072  -0.00230   2.60335
    R3        2.62564   0.00007  -0.00014   0.00026   0.00012   2.62576
    R4        2.05954  -0.00007  -0.00043   0.00009  -0.00034   2.05921
    R5        2.62337   0.00001   0.00042  -0.00020   0.00022   2.62358
    R6        3.37316  -0.00028  -0.00046  -0.00064  -0.00109   3.37207
    R7        2.63156  -0.00018  -0.00013  -0.00038  -0.00052   2.63105
    R8        2.04551   0.00006  -0.00001   0.00022   0.00020   2.04572
    R9        2.63058   0.00015  -0.00037   0.00077   0.00041   2.63099
   R10        2.05032   0.00005   0.00025  -0.00019   0.00005   2.05038
   R11        3.46187   0.00032   0.00319   0.00018   0.00337   3.46525
    A1        1.94798   0.00045   0.00222   0.00008   0.00230   1.95028
    A2        2.14173  -0.00019  -0.00157   0.00019  -0.00137   2.14036
    A3        2.10052   0.00002  -0.00019   0.00015  -0.00004   2.10048
    A4        2.04093   0.00016   0.00176  -0.00035   0.00141   2.04235
    A5        2.13830  -0.00016  -0.00046  -0.00009  -0.00055   2.13775
    A6        2.08983   0.00014   0.00037   0.00021   0.00058   2.09041
    A7        2.05505   0.00002   0.00010  -0.00013  -0.00003   2.05502
    A8        2.04352   0.00017   0.00122  -0.00010   0.00112   2.04464
    A9        2.11501  -0.00011  -0.00099   0.00009  -0.00090   2.11411
   A10        2.12466  -0.00006  -0.00023   0.00001  -0.00022   2.12444
   A11        2.05650  -0.00006  -0.00074   0.00004  -0.00071   2.05580
   A12        2.10212  -0.00004   0.00049  -0.00062  -0.00013   2.10199
   A13        2.12456   0.00010   0.00025   0.00058   0.00084   2.12539
   A14        2.23833  -0.00021  -0.00066  -0.00012  -0.00079   2.23755
   A15        2.07089   0.00023   0.00065   0.00055   0.00120   2.07209
   A16        1.97396  -0.00001   0.00002  -0.00042  -0.00041   1.97355
    D1       -0.00000  -0.00000   0.00000  -0.00000   0.00000   0.00000
    D2        3.14159  -0.00000   0.00000  -0.00000   0.00000   3.14159
    D3        0.00000   0.00000   0.00000   0.00000   0.00000   0.00000
    D4        3.14159  -0.00000   0.00000  -0.00000   0.00000   3.14159
    D5        0.00000   0.00000   0.00000   0.00000  -0.00000   0.00000
    D6        3.14159   0.00000   0.00000   0.00000   0.00000   3.14159
    D7        3.14159   0.00000   0.00000   0.00000   0.00000   3.14159
    D8        0.00000   0.00000   0.00000   0.00000   0.00000   0.00000
    D9        0.00000   0.00000   0.00000   0.00000  -0.00000   0.00000
   D10        3.14159   0.00000   0.00000  -0.00000   0.00000   3.14159
   D11        3.14159   0.00000   0.00000   0.00000   0.00000   3.14159
   D12        0.00000   0.00000   0.00000   0.00000  -0.00000   0.00000
   D13        0.00000  -0.00000   0.00000  -0.00000   0.00000   0.00000
   D14        3.14159   0.00000   0.00000  -0.00000   0.00000   3.14159
   D15        3.14159  -0.00000   0.00000  -0.00000   0.00000   3.14159
   D16       -0.00000   0.00000   0.00000  -0.00000   0.00000   0.00000
   D17       -0.00000  -0.00000   0.00000   0.00000   0.00000   0.00000
   D18        3.14159   0.00000   0.00000   0.00000   0.00000   3.14159
   D19        3.14159  -0.00000   0.00000   0.00000   0.00000   3.14159
   D20        0.00000  -0.00000   0.00000   0.00000   0.00000   0.00000
         Item               Value     Threshold  Converged?
 Maximum Force            0.000580     0.000450     NO 
 RMS     Force            0.000157     0.000300     YES
 Maximum Displacement     0.002906     0.001800     NO 
 RMS     Displacement     0.000877     0.001200     YES
 Predicted change in Energy=-2.548504D-06
 GradGradGradGradGradGradGradGradGradGradGradGradGradGradGradGradGradGrad

                          Input orientation:                          
 ---------------------------------------------------------------------
 Center     Atomic      Atomic             Coordinates (Angstroms)
 Number     Number       Type             X           Y           Z
 ---------------------------------------------------------------------
      1          6           0       -1.325498    1.165336    0.000000
      2          6           0       -0.059344    1.792625    0.000000
      3          6           0        1.131539    1.076747    0.000000
      4          6           0        1.167224   -0.311135   -0.000000
      5          6           0       -0.054927   -0.978083   -0.000000
      6          6           0       -1.214711   -0.207833    0.000000
      7         17           0       -2.746749   -1.215515   -0.000000
      8          1           0        0.016546    2.879664    0.000000
      9          1           0       -0.089259   -2.062552   -0.000000
     10         17           0        2.688943    1.947756    0.000000
     11          1           0        2.107964   -0.846779   -0.000000
 ---------------------------------------------------------------------
                    Distance matrix (angstroms):
                    1          2          3          4          5
     1  C    0.000000
     2  C    1.413023   0.000000
     3  C    2.458633   1.389490   0.000000
     4  C    2.897176   2.435215   1.388340   0.000000
     5  C    2.491705   2.770711   2.372767   1.392290   0.000000
     6  C    1.377631   2.310131   2.674890   2.384174   1.392259
     7  Cl   2.772798   4.033739   4.505062   4.017100   2.702274
     8  H    2.177154   1.089685   2.119839   3.391940   3.858408
     9  H    3.456522   3.855293   3.368315   2.155507   1.085013
    10  Cl   4.089977   2.752662   1.784423   2.723640   4.011153
    11  H    3.979606   3.415213   2.157165   1.082547   2.166873
                    6          7          8          9         10
     6  C    0.000000
     7  Cl   1.833729   0.000000
     8  H    3.323948   4.940272   0.000000
     9  H    2.169475   2.789216   4.943348   0.000000
    10  Cl   4.459269   6.289120   2.830222   4.878624   0.000000
    11  H    3.383552   4.868697   4.273220   2.511154   2.854289
                   11
    11  H    0.000000
 Stoichiometry    C6H3Cl2(1-)
 Framework group  CS[SG(C6H3Cl2)]
 Deg. of freedom    19
 Full point group                 CS      NOp   2
 Largest Abelian subgroup         CS      NOp   2
 Largest concise Abelian subgroup C1      NOp   1
                         Standard orientation:                         
 ---------------------------------------------------------------------
 Center     Atomic      Atomic             Coordinates (Angstroms)
 Number     Number       Type             X           Y           Z
 ---------------------------------------------------------------------
      1          6           0        1.282323   -0.832069    0.000000
      2          6           0        1.289848    0.580934    0.000000
      3          6           0        0.123713    1.336455    0.000000
      4          6           0       -1.138846    0.759020    0.000000
      5          6           0       -1.201326   -0.631867    0.000000
      6          6           0        0.000000   -1.335572    0.000000
      7         17           0       -0.232510   -3.154500    0.000000
      8          1           0        2.233129    1.126494    0.000000
      9          1           0       -2.160548   -1.138962    0.000000
     10         17           0        0.222296    3.118153    0.000000
     11          1           0       -2.033206    1.368961    0.000000
 ---------------------------------------------------------------------
 Rotational constants (GHZ):           5.8304895           0.6624412           0.5948556
 Standard basis: 6-311++G(d,p) (5D, 7F)
 There are   166 symmetry adapted cartesian basis functions of A'  symmetry.
 There are    55 symmetry adapted cartesian basis functions of A"  symmetry.
 There are   158 symmetry adapted basis functions of A'  symmetry.
 There are    55 symmetry adapted basis functions of A"  symmetry.
   213 basis functions,   349 primitive gaussians,   221 cartesian basis functions
    37 alpha electrons       37 beta electrons
       nuclear repulsion energy       431.7653799377 Hartrees.
 NAtoms=   11 NActive=   11 NUniq=   11 SFac= 1.00D+00 NAtFMM=   60 NAOKFM=F Big=F
 Integral buffers will be    131072 words long.
 Raffenetti 2 integral format.
 Two-electron integral symmetry is turned on.
 One-electron integrals computed using PRISM.
 NBasis=   213 RedAO= T EigKep=  1.66D-06  NBF=   158    55
 NBsUse=   213 1.00D-06 EigRej= -1.00D+00 NBFU=   158    55
 Initial guess from the checkpoint file:  "frequency_chks/124trichlorobenzene_anion_product_Freq.chk"
 B after Tr=     0.000000   -0.000000    0.000000
         Rot=    1.000000    0.000000    0.000000    0.000150 Ang=   0.02 deg.
 Initial guess orbital symmetries:
       Occupied  (A') (A') (A') (A') (A') (A') (A') (A') (A') (A')
                 (A') (A') (A") (A') (A") (A') (A') (A') (A') (A')
                 (A') (A') (A') (A') (A') (A') (A') (A") (A') (A")
                 (A') (A') (A") (A') (A") (A") (A')
       Virtual   (A') (A') (A') (A') (A') (A") (A") (A') (A") (A')
                 (A") (A') (A') (A') (A") (A') (A') (A") (A') (A')
                 (A') (A") (A') (A") (A") (A') (A') (A') (A") (A')
                 (A') (A') (A') (A') (A") (A') (A') (A') (A') (A')
                 (A') (A') (A') (A') (A') (A') (A') (A') (A') (A")
                 (A') (A") (A') (A') (A') (A') (A") (A') (A") (A")
                 (A') (A") (A") (A') (A') (A') (A") (A') (A') (A')
                 (A') (A') (A') (A") (A') (A') (A') (A') (A") (A')
                 (A") (A') (A") (A') (A') (A') (A') (A') (A") (A')
                 (A") (A') (A") (A') (A") (A') (A') (A') (A") (A")
                 (A') (A') (A') (A') (A") (A") (A') (A') (A') (A")
                 (A') (A') (A") (A") (A') (A') (A") (A') (A') (A")
                 (A') (A') (A") (A') (A") (A") (A') (A") (A') (A')
                 (A') (A') (A') (A') (A') (A') (A') (A") (A') (A')
                 (A') (A") (A") (A') (A") (A") (A') (A") (A') (A')
                 (A') (A') (A') (A') (A') (A') (A') (A') (A') (A')
                 (A') (A') (A') (A') (A') (A') (A') (A') (A") (A")
                 (A') (A') (A') (A') (A') (A')
 Keep R1 ints in memory in symmetry-blocked form, NReq=396964985.
 Requested convergence on RMS density matrix=1.00D-08 within 128 cycles.
 Requested convergence on MAX density matrix=1.00D-06.
 Requested convergence on             energy=1.00D-06.
 No special actions if energy rises.
 SCF Done:  E(RM062X) =  -1150.78892175     A.U. after   12 cycles
            NFock= 12  Conv=0.47D-08     -V/T= 2.0025
 Calling FoFJK, ICntrl=      2127 FMM=F ISym2X=1 I1Cent= 0 IOpClX= 0 NMat=1 NMatS=1 NMatT=0.
 ***** Axes restored to original set *****
 -------------------------------------------------------------------
 Center     Atomic                   Forces (Hartrees/Bohr)
 Number     Number              X              Y              Z
 -------------------------------------------------------------------
      1        6           0.000156181   -0.000076910   -0.000000000
      2        6          -0.000181693   -0.000077530    0.000000000
      3        6           0.000176615    0.000109326    0.000000000
      4        6          -0.000095752   -0.000034794    0.000000000
      5        6           0.000001558   -0.000013532   -0.000000000
      6        6          -0.000109092    0.000156386    0.000000000
      7       17           0.000049817   -0.000000068   -0.000000000
      8        1           0.000043472    0.000029500    0.000000000
      9        1           0.000023184   -0.000025886   -0.000000000
     10       17          -0.000067377   -0.000058024   -0.000000000
     11        1           0.000003088   -0.000008467   -0.000000000
 -------------------------------------------------------------------
 Cartesian Forces:  Max     0.000181693 RMS     0.000072579

 GradGradGradGradGradGradGradGradGradGradGradGradGradGradGradGradGradGrad
 Berny optimization.
 Using GEDIIS/GDIIS optimizer.
 FormGI is forming the generalized inverse of G from B-inverse, IUseBI=4.
 Internal  Forces:  Max     0.000102152 RMS     0.000034803
 Search for a local minimum.
 Step number   6 out of a maximum of   57
 All quantities printed in internal units (Hartrees-Bohrs-Radians)
 Mixed Optimization -- En-DIIS/RFO-DIIS
 Swapping is turned off.
 Update second derivatives using D2CorX and points    1    2    3    4    5
                                                      6
 DE= -3.05D-06 DEPred=-2.55D-06 R= 1.20D+00
 TightC=F SS=  1.41D+00  RLast= 5.87D-03 DXNew= 8.4853D-01 1.7602D-02
 Trust test= 1.20D+00 RLast= 5.87D-03 DXMaxT set to 5.05D-01
 ITU=  1  1  1  1  1  0
     Eigenvalues ---    0.02087   0.02089   0.02092   0.02096   0.02096
     Eigenvalues ---    0.02098   0.02102   0.02111   0.09997   0.15170
     Eigenvalues ---    0.16087   0.16387   0.18110   0.23314   0.23889
     Eigenvalues ---    0.25189   0.27565   0.29767   0.35689   0.35816
     Eigenvalues ---    0.36176   0.40366   0.41652   0.44836   0.45701
     Eigenvalues ---    0.45743   0.51877
 En-DIIS/RFO-DIIS/Sim-DIIS IScMMF=       -3 using points:     6    5    4    3
 RFO step:  Lambda=-2.33520238D-07.
 Use linear search instead of GDIIS.
 RFO step:  Lambda=-1.54228834D-07 EMin= 2.08650175D-02
 Quartic linear search produced a step of  0.14556.
 Iteration  1 RMS(Cart)=  0.00015317 RMS(Int)=  0.00000003
 Iteration  2 RMS(Cart)=  0.00000003 RMS(Int)=  0.00000003
 ClnCor:  largest displacement from symmetrization is 9.00D-11 for atom    11.
 Variable       Old X    -DE/DX   Delta X   Delta X   Delta X     New X
                                 (Linear)    (Quad)   (Total)
    R1        2.67023  -0.00009  -0.00011  -0.00017  -0.00028   2.66995
    R2        2.60335  -0.00010  -0.00034  -0.00004  -0.00037   2.60297
    R3        2.62576   0.00003   0.00002   0.00008   0.00010   2.62585
    R4        2.05921   0.00003  -0.00005   0.00011   0.00007   2.05927
    R5        2.62358   0.00003   0.00003   0.00008   0.00012   2.62370
    R6        3.37207  -0.00009  -0.00016  -0.00026  -0.00042   3.37165
    R7        2.63105  -0.00004  -0.00008  -0.00003  -0.00011   2.63094
    R8        2.04572   0.00001   0.00003   0.00000   0.00003   2.04575
    R9        2.63099   0.00002   0.00006   0.00003   0.00008   2.63107
   R10        2.05038   0.00003   0.00001   0.00006   0.00007   2.05044
   R11        3.46525  -0.00004   0.00049  -0.00046   0.00003   3.46528
    A1        1.95028   0.00005   0.00033   0.00008   0.00041   1.95069
    A2        2.14036   0.00001  -0.00020   0.00010  -0.00010   2.14026
    A3        2.10048   0.00003  -0.00001   0.00021   0.00020   2.10068
    A4        2.04235  -0.00004   0.00021  -0.00031  -0.00011   2.04224
    A5        2.13775  -0.00006  -0.00008  -0.00021  -0.00029   2.13746
    A6        2.09041   0.00004   0.00008   0.00012   0.00021   2.09062
    A7        2.05502   0.00002  -0.00000   0.00009   0.00008   2.05510
    A8        2.04464   0.00003   0.00016   0.00012   0.00028   2.04492
    A9        2.11411  -0.00002  -0.00013  -0.00004  -0.00017   2.11394
   A10        2.12444  -0.00001  -0.00003  -0.00008  -0.00012   2.12432
   A11        2.05580  -0.00002  -0.00010  -0.00001  -0.00011   2.05568
   A12        2.10199  -0.00002  -0.00002  -0.00016  -0.00018   2.10181
   A13        2.12539   0.00004   0.00012   0.00018   0.00030   2.12569
   A14        2.23755  -0.00001  -0.00011  -0.00008  -0.00020   2.23735
   A15        2.07209   0.00007   0.00017   0.00021   0.00039   2.07248
   A16        1.97355  -0.00006  -0.00006  -0.00013  -0.00019   1.97336
    D1       -0.00000   0.00000   0.00000   0.00000   0.00000   0.00000
    D2        3.14159   0.00000   0.00000   0.00000   0.00000   3.14159
    D3        0.00000  -0.00000   0.00000  -0.00000   0.00000   0.00000
    D4        3.14159  -0.00000   0.00000   0.00000   0.00000   3.14159
    D5        0.00000  -0.00000   0.00000  -0.00000   0.00000   0.00000
    D6        3.14159  -0.00000   0.00000  -0.00000   0.00000   3.14159
    D7        3.14159  -0.00000   0.00000  -0.00000   0.00000   3.14159
    D8       -0.00000  -0.00000   0.00000  -0.00000   0.00000   0.00000
    D9        0.00000  -0.00000   0.00000  -0.00000  -0.00000   0.00000
   D10        3.14159   0.00000   0.00000  -0.00000   0.00000   3.14159
   D11        3.14159  -0.00000   0.00000  -0.00000   0.00000   3.14159
   D12        0.00000  -0.00000   0.00000  -0.00000   0.00000   0.00000
   D13       -0.00000   0.00000   0.00000   0.00000   0.00000   0.00000
   D14        3.14159   0.00000   0.00000   0.00000   0.00000   3.14159
   D15        3.14159   0.00000   0.00000   0.00000   0.00000   3.14159
   D16        0.00000   0.00000   0.00000   0.00000   0.00000   0.00000
   D17        0.00000  -0.00000   0.00000  -0.00000   0.00000   0.00000
   D18        3.14159  -0.00000   0.00000  -0.00000   0.00000   3.14159
   D19        3.14159  -0.00000   0.00000   0.00000   0.00000   3.14159
   D20       -0.00000  -0.00000   0.00000  -0.00000   0.00000   0.00000
         Item               Value     Threshold  Converged?
 Maximum Force            0.000102     0.000450     YES
 RMS     Force            0.000035     0.000300     YES
 Maximum Displacement     0.000450     0.001800     YES
 RMS     Displacement     0.000153     0.001200     YES
 Predicted change in Energy=-1.151137D-07
 Optimization completed.
    -- Stationary point found.
                           ----------------------------
                           !   Optimized Parameters   !
                           ! (Angstroms and Degrees)  !
 --------------------------                            --------------------------
 ! Name  Definition              Value          Derivative Info.                !
 --------------------------------------------------------------------------------
 ! R1    R(1,2)                  1.413          -DE/DX =   -0.0001              !
 ! R2    R(1,6)                  1.3776         -DE/DX =   -0.0001              !
 ! R3    R(2,3)                  1.3895         -DE/DX =    0.0                 !
 ! R4    R(2,8)                  1.0897         -DE/DX =    0.0                 !
 ! R5    R(3,4)                  1.3883         -DE/DX =    0.0                 !
 ! R6    R(3,10)                 1.7844         -DE/DX =   -0.0001              !
 ! R7    R(4,5)                  1.3923         -DE/DX =    0.0                 !
 ! R8    R(4,11)                 1.0825         -DE/DX =    0.0                 !
 ! R9    R(5,6)                  1.3923         -DE/DX =    0.0                 !
 ! R10   R(5,9)                  1.085          -DE/DX =    0.0                 !
 ! R11   R(6,7)                  1.8337         -DE/DX =    0.0                 !
 ! A1    A(2,1,6)              111.7425         -DE/DX =    0.0                 !
 ! A2    A(1,2,3)              122.6334         -DE/DX =    0.0                 !
 ! A3    A(1,2,8)              120.3487         -DE/DX =    0.0                 !
 ! A4    A(3,2,8)              117.0179         -DE/DX =    0.0                 !
 ! A5    A(2,3,4)              122.4843         -DE/DX =   -0.0001              !
 ! A6    A(2,3,10)             119.7716         -DE/DX =    0.0                 !
 ! A7    A(4,3,10)             117.7441         -DE/DX =    0.0                 !
 ! A8    A(3,4,5)              117.1492         -DE/DX =    0.0                 !
 ! A9    A(3,4,11)             121.1295         -DE/DX =    0.0                 !
 ! A10   A(5,4,11)             121.7214         -DE/DX =    0.0                 !
 ! A11   A(4,5,6)              117.7886         -DE/DX =    0.0                 !
 ! A12   A(4,5,9)              120.4353         -DE/DX =    0.0                 !
 ! A13   A(6,5,9)              121.7761         -DE/DX =    0.0                 !
 ! A14   A(1,6,5)              128.202          -DE/DX =    0.0                 !
 ! A15   A(1,6,7)              118.7219         -DE/DX =    0.0001              !
 ! A16   A(5,6,7)              113.0761         -DE/DX =   -0.0001              !
 ! D1    D(6,1,2,3)              0.0            -DE/DX =    0.0                 !
 ! D2    D(6,1,2,8)            180.0            -DE/DX =    0.0                 !
 ! D3    D(2,1,6,5)              0.0            -DE/DX =    0.0                 !
 ! D4    D(2,1,6,7)            180.0            -DE/DX =    0.0                 !
 ! D5    D(1,2,3,4)              0.0            -DE/DX =    0.0                 !
 ! D6    D(1,2,3,10)           180.0            -DE/DX =    0.0                 !
 ! D7    D(8,2,3,4)            180.0            -DE/DX =    0.0                 !
 ! D8    D(8,2,3,10)             0.0            -DE/DX =    0.0                 !
 ! D9    D(2,3,4,5)              0.0            -DE/DX =    0.0                 !
 ! D10   D(2,3,4,11)           180.0            -DE/DX =    0.0                 !
 ! D11   D(10,3,4,5)           180.0            -DE/DX =    0.0                 !
 ! D12   D(10,3,4,11)            0.0            -DE/DX =    0.0                 !
 ! D13   D(3,4,5,6)              0.0            -DE/DX =    0.0                 !
 ! D14   D(3,4,5,9)            180.0            -DE/DX =    0.0                 !
 ! D15   D(11,4,5,6)           180.0            -DE/DX =    0.0                 !
 ! D16   D(11,4,5,9)             0.0            -DE/DX =    0.0                 !
 ! D17   D(4,5,6,1)              0.0            -DE/DX =    0.0                 !
 ! D18   D(4,5,6,7)            180.0            -DE/DX =    0.0                 !
 ! D19   D(9,5,6,1)            180.0            -DE/DX =    0.0                 !
 ! D20   D(9,5,6,7)              0.0            -DE/DX =    0.0                 !
 --------------------------------------------------------------------------------
 GradGradGradGradGradGradGradGradGradGradGradGradGradGradGradGradGradGrad

                          Input orientation:                          
 ---------------------------------------------------------------------
 Center     Atomic      Atomic             Coordinates (Angstroms)
 Number     Number       Type             X           Y           Z
 ---------------------------------------------------------------------
      1          6           0       -1.325498    1.165336    0.000000
      2          6           0       -0.059344    1.792625    0.000000
      3          6           0        1.131539    1.076747    0.000000
      4          6           0        1.167224   -0.311135   -0.000000
      5          6           0       -0.054927   -0.978083   -0.000000
      6          6           0       -1.214711   -0.207833    0.000000
      7         17           0       -2.746749   -1.215515   -0.000000
      8          1           0        0.016546    2.879664    0.000000
      9          1           0       -0.089259   -2.062552   -0.000000
     10         17           0        2.688943    1.947756    0.000000
     11          1           0        2.107964   -0.846779   -0.000000
 ---------------------------------------------------------------------
                    Distance matrix (angstroms):
                    1          2          3          4          5
     1  C    0.000000
     2  C    1.413023   0.000000
     3  C    2.458633   1.389490   0.000000
     4  C    2.897176   2.435215   1.388340   0.000000
     5  C    2.491705   2.770711   2.372767   1.392290   0.000000
     6  C    1.377631   2.310131   2.674890   2.384174   1.392259
     7  Cl   2.772798   4.033739   4.505062   4.017100   2.702274
     8  H    2.177154   1.089685   2.119839   3.391940   3.858408
     9  H    3.456522   3.855293   3.368315   2.155507   1.085013
    10  Cl   4.089977   2.752662   1.784423   2.723640   4.011153
    11  H    3.979606   3.415213   2.157165   1.082547   2.166873
                    6          7          8          9         10
     6  C    0.000000
     7  Cl   1.833729   0.000000
     8  H    3.323948   4.940272   0.000000
     9  H    2.169475   2.789216   4.943348   0.000000
    10  Cl   4.459269   6.289120   2.830222   4.878624   0.000000
    11  H    3.383552   4.868697   4.273220   2.511154   2.854289
                   11
    11  H    0.000000
 Stoichiometry    C6H3Cl2(1-)
 Framework group  CS[SG(C6H3Cl2)]
 Deg. of freedom    19
 Full point group                 CS      NOp   2
 Largest Abelian subgroup         CS      NOp   2
 Largest concise Abelian subgroup C1      NOp   1
                         Standard orientation:                         
 ---------------------------------------------------------------------
 Center     Atomic      Atomic             Coordinates (Angstroms)
 Number     Number       Type             X           Y           Z
 ---------------------------------------------------------------------
      1          6           0        1.282323   -0.832069    0.000000
      2          6           0        1.289848    0.580934    0.000000
      3          6           0        0.123713    1.336455    0.000000
      4          6           0       -1.138846    0.759020    0.000000
      5          6           0       -1.201326   -0.631867    0.000000
      6          6           0        0.000000   -1.335572    0.000000
      7         17           0       -0.232510   -3.154500    0.000000
      8          1           0        2.233129    1.126494    0.000000
      9          1           0       -2.160548   -1.138962    0.000000
     10         17           0        0.222296    3.118153    0.000000
     11          1           0       -2.033206    1.368961    0.000000
 ---------------------------------------------------------------------
 Rotational constants (GHZ):           5.8304895           0.6624412           0.5948556

 **********************************************************************

            Population analysis using the SCF Density.

 **********************************************************************

 Orbital symmetries:
       Occupied  (A') (A') (A') (A') (A') (A') (A') (A') (A') (A')
                 (A') (A') (A") (A') (A") (A') (A') (A') (A') (A')
                 (A') (A') (A') (A') (A') (A') (A') (A") (A') (A")
                 (A') (A') (A") (A') (A") (A") (A')
       Virtual   (A') (A') (A') (A') (A') (A") (A") (A') (A") (A')
                 (A") (A') (A') (A') (A") (A') (A') (A") (A') (A')
                 (A') (A") (A') (A") (A") (A') (A') (A') (A") (A')
                 (A') (A') (A') (A') (A") (A') (A') (A') (A') (A')
                 (A') (A') (A') (A') (A') (A') (A') (A') (A') (A")
                 (A') (A") (A') (A') (A') (A') (A") (A') (A") (A")
                 (A') (A") (A") (A') (A') (A') (A") (A') (A') (A')
                 (A') (A') (A') (A") (A') (A') (A') (A') (A") (A')
                 (A") (A') (A") (A') (A') (A') (A') (A') (A") (A')
                 (A") (A') (A") (A') (A") (A') (A') (A') (A") (A")
                 (A') (A') (A') (A') (A") (A") (A') (A') (A') (A")
                 (A') (A') (A") (A") (A') (A') (A") (A') (A') (A")
                 (A') (A') (A") (A') (A") (A") (A') (A") (A') (A')
                 (A') (A') (A') (A') (A') (A') (A') (A") (A') (A')
                 (A') (A") (A") (A') (A") (A") (A') (A") (A') (A')
                 (A') (A') (A') (A') (A') (A') (A') (A') (A') (A')
                 (A') (A') (A') (A') (A') (A') (A') (A') (A") (A")
                 (A') (A') (A') (A') (A') (A')
 The electronic state is 1-A'.
 Alpha  occ. eigenvalues -- -102.53873-102.49920 -10.45319 -10.43156 -10.40647
 Alpha  occ. eigenvalues --  -10.40549 -10.38910 -10.33508  -9.68130  -9.64185
 Alpha  occ. eigenvalues --   -7.40600  -7.40002  -7.39999  -7.36624  -7.36072
 Alpha  occ. eigenvalues --   -7.36059  -0.84488  -0.80161  -0.75128  -0.68498
 Alpha  occ. eigenvalues --   -0.64477  -0.53858  -0.49960  -0.42711  -0.37618
 Alpha  occ. eigenvalues --   -0.36701  -0.33464  -0.31951  -0.30867  -0.27132
 Alpha  occ. eigenvalues --   -0.25227  -0.24748  -0.22385  -0.20922  -0.15051
 Alpha  occ. eigenvalues --   -0.13185  -0.07628
 Alpha virt. eigenvalues --    0.09920   0.11645   0.12224   0.14366   0.15585
 Alpha virt. eigenvalues --    0.15730   0.16599   0.18509   0.19202   0.19680
 Alpha virt. eigenvalues --    0.19844   0.20199   0.21023   0.21559   0.21968
 Alpha virt. eigenvalues --    0.23159   0.23425   0.23801   0.24786   0.25454
 Alpha virt. eigenvalues --    0.25732   0.26146   0.27293   0.27359   0.28032
 Alpha virt. eigenvalues --    0.28856   0.29573   0.30245   0.30454   0.32263
 Alpha virt. eigenvalues --    0.33376   0.34104   0.35146   0.37144   0.37594
 Alpha virt. eigenvalues --    0.37755   0.38554   0.38955   0.40010   0.41562
 Alpha virt. eigenvalues --    0.42719   0.44273   0.44762   0.48189   0.50223
 Alpha virt. eigenvalues --    0.51818   0.52819   0.59137   0.60871   0.60885
 Alpha virt. eigenvalues --    0.63190   0.63533   0.66079   0.66917   0.69974
 Alpha virt. eigenvalues --    0.71654   0.71676   0.74089   0.75398   0.77595
 Alpha virt. eigenvalues --    0.78168   0.79630   0.80553   0.81678   0.82411
 Alpha virt. eigenvalues --    0.85094   0.86956   0.88372   0.90783   0.92840
 Alpha virt. eigenvalues --    0.95049   0.97072   1.01456   1.01969   1.02899
 Alpha virt. eigenvalues --    1.04993   1.06069   1.06740   1.07092   1.08558
 Alpha virt. eigenvalues --    1.10180   1.10790   1.11069   1.13101   1.13305
 Alpha virt. eigenvalues --    1.15539   1.17117   1.19053   1.21874   1.22392
 Alpha virt. eigenvalues --    1.24877   1.28784   1.31597   1.34522   1.37655
 Alpha virt. eigenvalues --    1.40171   1.42266   1.44689   1.50436   1.52909
 Alpha virt. eigenvalues --    1.64142   1.66976   1.71831   1.73037   1.76700
 Alpha virt. eigenvalues --    1.80318   1.81826   1.86486   1.88879   1.90848
 Alpha virt. eigenvalues --    1.92602   1.98424   2.06157   2.10569   2.10857
 Alpha virt. eigenvalues --    2.12351   2.13375   2.16397   2.21463   2.22163
 Alpha virt. eigenvalues --    2.22872   2.26953   2.34483   2.41672   2.44903
 Alpha virt. eigenvalues --    2.47985   2.48528   2.52506   2.54194   2.61013
 Alpha virt. eigenvalues --    2.62977   2.66175   2.68065   2.70647   2.74993
 Alpha virt. eigenvalues --    2.82001   2.86794   2.87014   2.88073   2.91763
 Alpha virt. eigenvalues --    2.92727   3.00001   3.01089   3.01735   3.08987
 Alpha virt. eigenvalues --    3.12185   3.25965   3.29087   3.33394   3.38322
 Alpha virt. eigenvalues --    3.45249   3.56843   3.59484   3.71379   3.82100
 Alpha virt. eigenvalues --    3.99125   4.09517   4.28401   4.30907   4.94615
 Alpha virt. eigenvalues --   10.08571  10.12656  23.69002  24.09323  24.19636
 Alpha virt. eigenvalues --   24.28719  24.31496  24.38492  26.06152  26.10014
 Alpha virt. eigenvalues --   26.31655  26.41442  26.75861  26.83023 216.18497
 Alpha virt. eigenvalues --  216.23003
          Condensed to atoms (all electrons):
               1          2          3          4          5          6
     1  C   13.338310   0.980031  -1.159366   0.731154 -10.910706   3.092004
     2  C    0.980031  20.830890  -2.549246 -11.029900  -0.055066  -0.935495
     3  C   -1.159366  -2.549246  20.402867  -7.775804   4.943724  -6.899994
     4  C    0.731154 -11.029900  -7.775804  29.079188 -11.387797   6.151352
     5  C  -10.910706  -0.055066   4.943724 -11.387797  36.659184 -14.645710
     6  C    3.092004  -0.935495  -6.899994   6.151352 -14.645710  21.722274
     7  Cl  -0.718561   0.066259   0.020285  -0.331388   1.990732  -2.197577
     8  H    0.150659   0.544835  -0.323098   0.023769  -0.152029  -0.107061
     9  H   -0.164949   0.044523   0.123363  -0.359321   0.908759  -0.360551
    10  Cl   0.425174  -0.436768  -1.490678   0.863790  -0.094276  -0.033180
    11  H    0.073678  -0.199096  -0.313340   0.801447  -0.268826   0.186790
               7          8          9         10         11
     1  C   -0.718561   0.150659  -0.164949   0.425174   0.073678
     2  C    0.066259   0.544835   0.044523  -0.436768  -0.199096
     3  C    0.020285  -0.323098   0.123363  -1.490678  -0.313340
     4  C   -0.331388   0.023769  -0.359321   0.863790   0.801447
     5  C    1.990732  -0.152029   0.908759  -0.094276  -0.268826
     6  C   -2.197577  -0.107061  -0.360551  -0.033180   0.186790
     7  Cl  17.896130   0.004755   0.113875  -0.025340  -0.020167
     8  H    0.004755   0.683508   0.001936   0.029527  -0.000323
     9  H    0.113875   0.001936   0.583211  -0.015753  -0.024172
    10  Cl  -0.025340   0.029527  -0.015753  17.582604   0.039301
    11  H   -0.020167  -0.000323  -0.024172   0.039301   0.569468
 Mulliken charges:
               1
     1  C    0.162574
     2  C   -1.260966
     3  C    1.021287
     4  C   -0.766490
     5  C   -0.987989
     6  C    0.027149
     7  Cl   0.200996
     8  H    0.143521
     9  H    0.149077
    10  Cl   0.155601
    11  H    0.155240
 Sum of Mulliken charges =  -1.00000
 Mulliken charges with hydrogens summed into heavy atoms:
               1
     1  C    0.162574
     2  C   -1.117445
     3  C    1.021287
     4  C   -0.611250
     5  C   -0.838912
     6  C    0.027149
     7  Cl   0.200996
    10  Cl   0.155601
 Electronic spatial extent (au):  <R**2>=           1686.5811
 Charge=             -1.0000 electrons
 Dipole moment (field-independent basis, Debye):
    X=             -3.8140    Y=              3.4231    Z=             -0.0000  Tot=              5.1249
 Quadrupole moment (field-independent basis, Debye-Ang):
   XX=            -70.7394   YY=            -92.6530   ZZ=            -67.2449
   XY=              3.4801   XZ=              0.0000   YZ=             -0.0000
 Traceless Quadrupole moment (field-independent basis, Debye-Ang):
   XX=              6.1397   YY=            -15.7739   ZZ=              9.6342
   XY=              3.4801   XZ=              0.0000   YZ=             -0.0000
 Octapole moment (field-independent basis, Debye-Ang**2):
  XXX=            -26.2929  YYY=             24.6067  ZZZ=             -0.0000  XYY=             -8.0074
  XXY=             15.4614  XXZ=             -0.0000  XZZ=             -2.2878  YZZ=              2.4605
  YYZ=             -0.0000  XYZ=             -0.0000
 Hexadecapole moment (field-independent basis, Debye-Ang**3):
 XXXX=           -397.9570 YYYY=          -2109.3041 ZZZZ=            -87.0904 XXXY=            -26.5228
 XXXZ=              0.0000 YYYX=            -59.7185 YYYZ=             -0.0000 ZZZX=             -0.0000
 ZZZY=             -0.0000 XXYY=           -398.3646 XXZZ=            -84.6818 YYZZ=           -340.8353
 XXYZ=             -0.0000 YYXZ=             -0.0000 ZZXY=            -16.7838
 N-N= 4.317653799377D+02 E-N=-3.598950897624D+03  KE= 1.147939372611D+03
 Symmetry A'   KE= 1.049973833364D+03
 Symmetry A"   KE= 9.796553924759D+01
 1\1\GINC-SH03-08N41\FOpt\RM062X\6-311++G(d,p)\C6H3Cl2(1-)\JLAPIER\03-A
 pr-2026\0\\# opt freq 6-311++g(d,p) m062x\\1,4 dichlorobenzene anion r
 adical\\-1,1\C,-1.3254977247,1.1653360448,0.\C,-0.0593444387,1.7926245
 929,0.\C,1.1315385087,1.0767467202,0.\C,1.1672239352,-0.3111347234,0.\
 C,-0.0549267491,-0.9780826122,0.\C,-1.2147113794,-0.2078333291,0.\Cl,-
 2.746749205,-1.2155150554,0.\H,0.0165461385,2.8796637891,0.\H,-0.08925
 9315,-2.0625518694,0.\Cl,2.6889429439,1.9477558824,0.\H,2.1079640393,-
 0.8467792758,0.\\Version=ES64L-G16RevB.01\State=1-A'\HF=-1150.7889218\
 RMSD=4.729e-09\RMSF=7.258e-05\Dipole=1.8689066,-0.7566765,0.\Quadrupol
 e=-10.6270949,3.4643135,7.1627814,-4.8385603,0.,0.\PG=CS [SG(C6H3Cl2)]
 \\@


 THE REASON MAN'S BEST FRIEND IS A DOG IS BECAUSE
 HE WAGS HIS TAIL INSTEAD OF HIS TONGUE.
 Job cpu time:       0 days  0 hours 12 minutes  5.7 seconds.
 Elapsed time:       0 days  0 hours  3 minutes  8.7 seconds.
 File lengths (MBytes):  RWF=     29 Int=      0 D2E=      0 Chk=      5 Scr=      1
 Normal termination of Gaussian 16 at Fri Apr  3 14:15:35 2026.
 Link1:  Proceeding to internal job step number  2.
 ----------------------------------------------------------------------
 #N Geom=AllCheck Guess=TCheck SCRF=Check GenChk RM062X/6-311++G(d,p) F
 req
 ----------------------------------------------------------------------
 1/10=4,29=7,30=1,38=1,40=1/1,3;
 2/12=2,40=1/2;
 3/5=4,6=6,7=1111,11=2,14=-4,25=1,30=1,70=2,71=2,74=-55,116=1,140=1/1,2,3;
 4/5=101/1;
 5/5=2,38=6,98=1/2;
 8/6=4,10=90,11=11/1;
 11/6=1,8=1,9=11,15=111,16=1/1,2,10;
 10/6=1/2;
 6/7=2,8=2,9=2,10=2,28=1/1;
 7/8=1,10=1,25=1/1,2,3,16;
 1/10=4,30=1/3;
 99//99;
 Structure from the checkpoint file:  "frequency_chks/124trichlorobenzene_anion_product_Freq.chk"
 ---------------------------------
 1,4 dichlorobenzene anion radical
 ---------------------------------
 Charge = -1 Multiplicity = 1
 Redundant internal coordinates found in file.  (old form).
 C,0,-1.3254977247,1.1653360448,0.
 C,0,-0.0593444387,1.7926245929,0.
 C,0,1.1315385087,1.0767467202,0.
 C,0,1.1672239352,-0.3111347234,0.
 C,0,-0.0549267491,-0.9780826122,0.
 C,0,-1.2147113794,-0.2078333291,0.
 Cl,0,-2.746749205,-1.2155150554,0.
 H,0,0.0165461385,2.8796637891,0.
 H,0,-0.089259315,-2.0625518694,0.
 Cl,0,2.6889429439,1.9477558824,0.
 H,0,2.1079640393,-0.8467792758,0.
 Recover connectivity data from disk.

 GradGradGradGradGradGradGradGradGradGradGradGradGradGradGradGradGradGrad
 Berny optimization.
 Initialization pass.
                           ----------------------------
                           !    Initial Parameters    !
                           ! (Angstroms and Degrees)  !
 --------------------------                            --------------------------
 ! Name  Definition              Value          Derivative Info.                !
 --------------------------------------------------------------------------------
 ! R1    R(1,2)                  1.413          calculate D2E/DX2 analytically  !
 ! R2    R(1,6)                  1.3776         calculate D2E/DX2 analytically  !
 ! R3    R(2,3)                  1.3895         calculate D2E/DX2 analytically  !
 ! R4    R(2,8)                  1.0897         calculate D2E/DX2 analytically  !
 ! R5    R(3,4)                  1.3883         calculate D2E/DX2 analytically  !
 ! R6    R(3,10)                 1.7844         calculate D2E/DX2 analytically  !
 ! R7    R(4,5)                  1.3923         calculate D2E/DX2 analytically  !
 ! R8    R(4,11)                 1.0825         calculate D2E/DX2 analytically  !
 ! R9    R(5,6)                  1.3923         calculate D2E/DX2 analytically  !
 ! R10   R(5,9)                  1.085          calculate D2E/DX2 analytically  !
 ! R11   R(6,7)                  1.8337         calculate D2E/DX2 analytically  !
 ! A1    A(2,1,6)              111.7425         calculate D2E/DX2 analytically  !
 ! A2    A(1,2,3)              122.6334         calculate D2E/DX2 analytically  !
 ! A3    A(1,2,8)              120.3487         calculate D2E/DX2 analytically  !
 ! A4    A(3,2,8)              117.0179         calculate D2E/DX2 analytically  !
 ! A5    A(2,3,4)              122.4843         calculate D2E/DX2 analytically  !
 ! A6    A(2,3,10)             119.7716         calculate D2E/DX2 analytically  !
 ! A7    A(4,3,10)             117.7441         calculate D2E/DX2 analytically  !
 ! A8    A(3,4,5)              117.1492         calculate D2E/DX2 analytically  !
 ! A9    A(3,4,11)             121.1295         calculate D2E/DX2 analytically  !
 ! A10   A(5,4,11)             121.7214         calculate D2E/DX2 analytically  !
 ! A11   A(4,5,6)              117.7886         calculate D2E/DX2 analytically  !
 ! A12   A(4,5,9)              120.4353         calculate D2E/DX2 analytically  !
 ! A13   A(6,5,9)              121.7761         calculate D2E/DX2 analytically  !
 ! A14   A(1,6,5)              128.202          calculate D2E/DX2 analytically  !
 ! A15   A(1,6,7)              118.7219         calculate D2E/DX2 analytically  !
 ! A16   A(5,6,7)              113.0761         calculate D2E/DX2 analytically  !
 ! D1    D(6,1,2,3)              0.0            calculate D2E/DX2 analytically  !
 ! D2    D(6,1,2,8)            180.0            calculate D2E/DX2 analytically  !
 ! D3    D(2,1,6,5)              0.0            calculate D2E/DX2 analytically  !
 ! D4    D(2,1,6,7)            180.0            calculate D2E/DX2 analytically  !
 ! D5    D(1,2,3,4)              0.0            calculate D2E/DX2 analytically  !
 ! D6    D(1,2,3,10)           180.0            calculate D2E/DX2 analytically  !
 ! D7    D(8,2,3,4)            180.0            calculate D2E/DX2 analytically  !
 ! D8    D(8,2,3,10)             0.0            calculate D2E/DX2 analytically  !
 ! D9    D(2,3,4,5)              0.0            calculate D2E/DX2 analytically  !
 ! D10   D(2,3,4,11)           180.0            calculate D2E/DX2 analytically  !
 ! D11   D(10,3,4,5)           180.0            calculate D2E/DX2 analytically  !
 ! D12   D(10,3,4,11)            0.0            calculate D2E/DX2 analytically  !
 ! D13   D(3,4,5,6)              0.0            calculate D2E/DX2 analytically  !
 ! D14   D(3,4,5,9)            180.0            calculate D2E/DX2 analytically  !
 ! D15   D(11,4,5,6)           180.0            calculate D2E/DX2 analytically  !
 ! D16   D(11,4,5,9)             0.0            calculate D2E/DX2 analytically  !
 ! D17   D(4,5,6,1)              0.0            calculate D2E/DX2 analytically  !
 ! D18   D(4,5,6,7)            180.0            calculate D2E/DX2 analytically  !
 ! D19   D(9,5,6,1)            180.0            calculate D2E/DX2 analytically  !
 ! D20   D(9,5,6,7)              0.0            calculate D2E/DX2 analytically  !
 --------------------------------------------------------------------------------
 Trust Radius=3.00D-01 FncErr=1.00D-07 GrdErr=1.00D-07 EigMax=2.50D+02 EigMin=1.00D-04
 Number of steps in this run=      2 maximum allowed number of steps=      2.
 GradGradGradGradGradGradGradGradGradGradGradGradGradGradGradGradGradGrad

                          Input orientation:                          
 ---------------------------------------------------------------------
 Center     Atomic      Atomic             Coordinates (Angstroms)
 Number     Number       Type             X           Y           Z
 ---------------------------------------------------------------------
      1          6           0       -1.325498    1.165336    0.000000
      2          6           0       -0.059344    1.792625    0.000000
      3          6           0        1.131539    1.076747    0.000000
      4          6           0        1.167224   -0.311135   -0.000000
      5          6           0       -0.054927   -0.978083   -0.000000
      6          6           0       -1.214711   -0.207833    0.000000
      7         17           0       -2.746749   -1.215515   -0.000000
      8          1           0        0.016546    2.879664    0.000000
      9          1           0       -0.089259   -2.062552   -0.000000
     10         17           0        2.688943    1.947756    0.000000
     11          1           0        2.107964   -0.846779   -0.000000
 ---------------------------------------------------------------------
                    Distance matrix (angstroms):
                    1          2          3          4          5
     1  C    0.000000
     2  C    1.413023   0.000000
     3  C    2.458633   1.389490   0.000000
     4  C    2.897176   2.435215   1.388340   0.000000
     5  C    2.491705   2.770711   2.372767   1.392290   0.000000
     6  C    1.377631   2.310131   2.674890   2.384174   1.392259
     7  Cl   2.772798   4.033739   4.505062   4.017100   2.702274
     8  H    2.177154   1.089685   2.119839   3.391940   3.858408
     9  H    3.456522   3.855293   3.368315   2.155507   1.085013
    10  Cl   4.089977   2.752662   1.784423   2.723640   4.011153
    11  H    3.979606   3.415213   2.157165   1.082547   2.166873
                    6          7          8          9         10
     6  C    0.000000
     7  Cl   1.833729   0.000000
     8  H    3.323948   4.940272   0.000000
     9  H    2.169475   2.789216   4.943348   0.000000
    10  Cl   4.459269   6.289120   2.830222   4.878624   0.000000
    11  H    3.383552   4.868697   4.273220   2.511154   2.854289
                   11
    11  H    0.000000
 Stoichiometry    C6H3Cl2(1-)
 Framework group  CS[SG(C6H3Cl2)]
 Deg. of freedom    19
 Full point group                 CS      NOp   2
 Largest Abelian subgroup         CS      NOp   2
 Largest concise Abelian subgroup C1      NOp   1
                         Standard orientation:                         
 ---------------------------------------------------------------------
 Center     Atomic      Atomic             Coordinates (Angstroms)
 Number     Number       Type             X           Y           Z
 ---------------------------------------------------------------------
      1          6           0        1.282323   -0.832069    0.000000
      2          6           0        1.289848    0.580934   -0.000000
      3          6           0        0.123713    1.336455   -0.000000
      4          6           0       -1.138846    0.759020   -0.000000
      5          6           0       -1.201326   -0.631867    0.000000
      6          6           0        0.000000   -1.335572    0.000000
      7         17           0       -0.232510   -3.154500    0.000000
      8          1           0        2.233129    1.126494   -0.000000
      9          1           0       -2.160548   -1.138962    0.000000
     10         17           0        0.222296    3.118153   -0.000000
     11          1           0       -2.033206    1.368961   -0.000000
 ---------------------------------------------------------------------
 Rotational constants (GHZ):           5.8304895           0.6624412           0.5948556
 Standard basis: 6-311++G(d,p) (5D, 7F)
 There are   166 symmetry adapted cartesian basis functions of A'  symmetry.
 There are    55 symmetry adapted cartesian basis functions of A"  symmetry.
 There are   158 symmetry adapted basis functions of A'  symmetry.
 There are    55 symmetry adapted basis functions of A"  symmetry.
   213 basis functions,   349 primitive gaussians,   221 cartesian basis functions
    37 alpha electrons       37 beta electrons
       nuclear repulsion energy       431.7653799377 Hartrees.
 NAtoms=   11 NActive=   11 NUniq=   11 SFac= 1.00D+00 NAtFMM=   60 NAOKFM=F Big=F
 Integral buffers will be    131072 words long.
 Raffenetti 2 integral format.
 Two-electron integral symmetry is turned on.
 One-electron integrals computed using PRISM.
 NBasis=   213 RedAO= T EigKep=  1.66D-06  NBF=   158    55
 NBsUse=   213 1.00D-06 EigRej= -1.00D+00 NBFU=   158    55
 Initial guess from the checkpoint file:  "frequency_chks/124trichlorobenzene_anion_product_Freq.chk"
 B after Tr=    -0.000000   -0.000000   -0.000000
         Rot=    1.000000    0.000000    0.000000    0.000000 Ang=   0.00 deg.
 Initial guess orbital symmetries:
       Occupied  (A') (A') (A') (A') (A') (A') (A') (A') (A') (A')
                 (A') (A') (A") (A') (A") (A') (A') (A') (A') (A')
                 (A') (A') (A') (A') (A') (A') (A') (A") (A') (A")
                 (A') (A') (A") (A') (A") (A") (A')
       Virtual   (A') (A') (A') (A') (A') (A") (A") (A') (A") (A')
                 (A") (A') (A') (A') (A") (A') (A') (A") (A') (A')
                 (A') (A") (A') (A") (A") (A') (A') (A') (A") (A')
                 (A') (A') (A') (A') (A") (A') (A') (A') (A') (A')
                 (A') (A') (A') (A') (A') (A') (A') (A') (A') (A")
                 (A') (A") (A') (A') (A') (A') (A") (A') (A") (A")
                 (A') (A") (A") (A') (A') (A') (A") (A') (A') (A')
                 (A') (A') (A') (A") (A') (A') (A') (A') (A") (A')
                 (A") (A') (A") (A') (A') (A') (A') (A') (A") (A')
                 (A") (A') (A") (A') (A") (A') (A') (A') (A") (A")
                 (A') (A') (A') (A') (A") (A") (A') (A') (A') (A")
                 (A') (A') (A") (A") (A') (A') (A") (A') (A') (A")
                 (A') (A') (A") (A') (A") (A") (A') (A") (A') (A')
                 (A') (A') (A') (A') (A') (A') (A') (A") (A') (A')
                 (A') (A") (A") (A') (A") (A") (A') (A") (A') (A')
                 (A') (A') (A') (A') (A') (A') (A') (A') (A') (A')
                 (A') (A') (A') (A') (A') (A') (A') (A') (A") (A")
                 (A') (A') (A') (A') (A') (A')
 Keep R1 ints in memory in symmetry-blocked form, NReq=396964985.
 Requested convergence on RMS density matrix=1.00D-08 within 128 cycles.
 Requested convergence on MAX density matrix=1.00D-06.
 Requested convergence on             energy=1.00D-06.
 No special actions if energy rises.
 SCF Done:  E(RM062X) =  -1150.78892175     A.U. after    4 cycles
            NFock=  4  Conv=0.46D-08     -V/T= 2.0025
 DoSCS=F DFT=T ScalE2(SS,OS)=  1.000000  1.000000
 Range of M.O.s used for correlation:     1   213
 NBasis=   213 NAE=    37 NBE=    37 NFC=     0 NFV=     0
 NROrb=    213 NOA=    37 NOB=    37 NVA=   176 NVB=   176

 **** Warning!!: The largest alpha MO coefficient is  0.22899000D+03

 Symmetrizing basis deriv contribution to polar:
 IMax=3 JMax=2 DiffMx= 0.00D+00
 G2DrvN: will do    12 centers at a time, making    1 passes.
 Calling FoFCou, ICntrl=  3107 FMM=F I1Cent=   0 AccDes= 0.00D+00.
 End of G2Drv F.D. properties file   721 does not exist.
 End of G2Drv F.D. properties file   722 does not exist.
 End of G2Drv F.D. properties file   788 does not exist.
          IDoAtm=11111111111
          Differentiating once with respect to electric field.
                with respect to dipole field.
          Differentiating once with respect to nuclear coordinates.
 Keep R1 ints in memory in symmetry-blocked form, NReq=396970126.
          There are    36 degrees of freedom in the 1st order CPHF.  IDoFFX=6 NUNeed=     3.
     33 vectors produced by pass  0 Test12= 1.81D-14 2.78D-09 XBig12= 1.06D+02 4.20D+00.
 AX will form    33 AO Fock derivatives at one time.
     33 vectors produced by pass  1 Test12= 1.81D-14 2.78D-09 XBig12= 2.22D+01 1.59D+00.
     33 vectors produced by pass  2 Test12= 1.81D-14 2.78D-09 XBig12= 4.31D-01 1.43D-01.
     33 vectors produced by pass  3 Test12= 1.81D-14 2.78D-09 XBig12= 5.56D-03 1.40D-02.
     33 vectors produced by pass  4 Test12= 1.81D-14 2.78D-09 XBig12= 4.26D-05 1.01D-03.
     33 vectors produced by pass  5 Test12= 1.81D-14 2.78D-09 XBig12= 2.71D-07 7.10D-05.
     33 vectors produced by pass  6 Test12= 1.81D-14 2.78D-09 XBig12= 1.57D-09 6.13D-06.
     22 vectors produced by pass  7 Test12= 1.81D-14 2.78D-09 XBig12= 6.54D-12 3.24D-07.
      3 vectors produced by pass  8 Test12= 1.81D-14 2.78D-09 XBig12= 3.02D-14 1.97D-08.
 InvSVY:  IOpt=1 It=  1 EMax= 7.11D-15
 Solved reduced A of dimension   256 with    36 vectors.
 Isotropic polarizability for W=    0.000000      108.63 Bohr**3.
 End of Minotr F.D. properties file   721 does not exist.
 End of Minotr F.D. properties file   722 does not exist.
 End of Minotr F.D. properties file   788 does not exist.

 **********************************************************************

            Population analysis using the SCF Density.

 **********************************************************************

 Orbital symmetries:
       Occupied  (A') (A') (A') (A') (A') (A') (A') (A') (A') (A')
                 (A') (A') (A") (A') (A") (A') (A') (A') (A') (A')
                 (A') (A') (A') (A') (A') (A') (A') (A") (A') (A")
                 (A') (A') (A") (A') (A") (A") (A')
       Virtual   (A') (A') (A') (A') (A') (A") (A") (A') (A") (A')
                 (A") (A') (A') (A') (A") (A') (A') (A") (A') (A')
                 (A') (A") (A') (A") (A") (A') (A') (A') (A") (A')
                 (A') (A') (A') (A') (A") (A') (A') (A') (A') (A')
                 (A') (A') (A') (A') (A') (A') (A') (A') (A') (A")
                 (A') (A") (A') (A') (A') (A') (A") (A') (A") (A")
                 (A') (A") (A") (A') (A') (A') (A") (A') (A') (A')
                 (A') (A') (A') (A") (A') (A') (A') (A') (A") (A')
                 (A") (A') (A") (A') (A') (A') (A') (A') (A") (A')
                 (A") (A') (A") (A') (A") (A') (A') (A') (A") (A")
                 (A') (A') (A') (A') (A") (A") (A') (A') (A') (A")
                 (A') (A') (A") (A") (A') (A') (A") (A') (A') (A")
                 (A') (A') (A") (A') (A") (A") (A') (A") (A') (A')
                 (A') (A') (A') (A') (A') (A') (A') (A") (A') (A')
                 (A') (A") (A") (A') (A") (A") (A') (A") (A') (A')
                 (A') (A') (A') (A') (A') (A') (A') (A') (A') (A')
                 (A') (A') (A') (A') (A') (A') (A') (A') (A") (A")
                 (A') (A') (A') (A') (A') (A')
 The electronic state is 1-A'.
 Alpha  occ. eigenvalues -- -102.53873-102.49920 -10.45319 -10.43156 -10.40647
 Alpha  occ. eigenvalues --  -10.40549 -10.38910 -10.33508  -9.68130  -9.64185
 Alpha  occ. eigenvalues --   -7.40600  -7.40002  -7.39999  -7.36624  -7.36072
 Alpha  occ. eigenvalues --   -7.36059  -0.84488  -0.80161  -0.75128  -0.68498
 Alpha  occ. eigenvalues --   -0.64477  -0.53858  -0.49960  -0.42711  -0.37618
 Alpha  occ. eigenvalues --   -0.36701  -0.33464  -0.31951  -0.30867  -0.27132
 Alpha  occ. eigenvalues --   -0.25227  -0.24748  -0.22385  -0.20922  -0.15051
 Alpha  occ. eigenvalues --   -0.13185  -0.07628
 Alpha virt. eigenvalues --    0.09920   0.11645   0.12224   0.14366   0.15585
 Alpha virt. eigenvalues --    0.15730   0.16599   0.18509   0.19202   0.19680
 Alpha virt. eigenvalues --    0.19844   0.20199   0.21023   0.21559   0.21968
 Alpha virt. eigenvalues --    0.23159   0.23425   0.23801   0.24786   0.25454
 Alpha virt. eigenvalues --    0.25732   0.26146   0.27293   0.27359   0.28032
 Alpha virt. eigenvalues --    0.28856   0.29573   0.30245   0.30454   0.32263
 Alpha virt. eigenvalues --    0.33376   0.34104   0.35146   0.37144   0.37594
 Alpha virt. eigenvalues --    0.37755   0.38554   0.38955   0.40010   0.41562
 Alpha virt. eigenvalues --    0.42719   0.44273   0.44762   0.48189   0.50223
 Alpha virt. eigenvalues --    0.51818   0.52819   0.59137   0.60871   0.60885
 Alpha virt. eigenvalues --    0.63190   0.63533   0.66079   0.66917   0.69974
 Alpha virt. eigenvalues --    0.71654   0.71676   0.74089   0.75398   0.77595
 Alpha virt. eigenvalues --    0.78168   0.79630   0.80553   0.81678   0.82411
 Alpha virt. eigenvalues --    0.85094   0.86956   0.88372   0.90783   0.92840
 Alpha virt. eigenvalues --    0.95049   0.97072   1.01456   1.01969   1.02899
 Alpha virt. eigenvalues --    1.04993   1.06069   1.06740   1.07092   1.08558
 Alpha virt. eigenvalues --    1.10180   1.10790   1.11069   1.13101   1.13305
 Alpha virt. eigenvalues --    1.15539   1.17117   1.19053   1.21874   1.22392
 Alpha virt. eigenvalues --    1.24877   1.28784   1.31597   1.34522   1.37655
 Alpha virt. eigenvalues --    1.40171   1.42266   1.44689   1.50436   1.52909
 Alpha virt. eigenvalues --    1.64142   1.66976   1.71831   1.73037   1.76700
 Alpha virt. eigenvalues --    1.80318   1.81826   1.86486   1.88879   1.90848
 Alpha virt. eigenvalues --    1.92602   1.98424   2.06157   2.10569   2.10857
 Alpha virt. eigenvalues --    2.12351   2.13375   2.16397   2.21463   2.22163
 Alpha virt. eigenvalues --    2.22872   2.26953   2.34483   2.41672   2.44903
 Alpha virt. eigenvalues --    2.47985   2.48528   2.52506   2.54194   2.61013
 Alpha virt. eigenvalues --    2.62977   2.66175   2.68065   2.70647   2.74993
 Alpha virt. eigenvalues --    2.82001   2.86794   2.87014   2.88073   2.91763
 Alpha virt. eigenvalues --    2.92727   3.00001   3.01089   3.01735   3.08987
 Alpha virt. eigenvalues --    3.12185   3.25965   3.29087   3.33394   3.38322
 Alpha virt. eigenvalues --    3.45249   3.56843   3.59484   3.71379   3.82100
 Alpha virt. eigenvalues --    3.99125   4.09517   4.28401   4.30907   4.94615
 Alpha virt. eigenvalues --   10.08571  10.12656  23.69002  24.09323  24.19636
 Alpha virt. eigenvalues --   24.28719  24.31496  24.38492  26.06152  26.10014
 Alpha virt. eigenvalues --   26.31655  26.41442  26.75861  26.83023 216.18497
 Alpha virt. eigenvalues --  216.23003
          Condensed to atoms (all electrons):
               1          2          3          4          5          6
     1  C   13.338309   0.980031  -1.159366   0.731153 -10.910705   3.092004
     2  C    0.980031  20.830890  -2.549246 -11.029900  -0.055066  -0.935495
     3  C   -1.159366  -2.549246  20.402868  -7.775805   4.943724  -6.899994
     4  C    0.731153 -11.029900  -7.775805  29.079190 -11.387798   6.151352
     5  C  -10.910705  -0.055066   4.943724 -11.387798  36.659185 -14.645711
     6  C    3.092004  -0.935495  -6.899994   6.151352 -14.645711  21.722274
     7  Cl  -0.718561   0.066259   0.020285  -0.331388   1.990732  -2.197577
     8  H    0.150659   0.544835  -0.323098   0.023769  -0.152029  -0.107061
     9  H   -0.164949   0.044523   0.123363  -0.359321   0.908759  -0.360551
    10  Cl   0.425174  -0.436768  -1.490678   0.863790  -0.094276  -0.033180
    11  H    0.073678  -0.199096  -0.313340   0.801447  -0.268826   0.186790
               7          8          9         10         11
     1  C   -0.718561   0.150659  -0.164949   0.425174   0.073678
     2  C    0.066259   0.544835   0.044523  -0.436768  -0.199096
     3  C    0.020285  -0.323098   0.123363  -1.490678  -0.313340
     4  C   -0.331388   0.023769  -0.359321   0.863790   0.801447
     5  C    1.990732  -0.152029   0.908759  -0.094276  -0.268826
     6  C   -2.197577  -0.107061  -0.360551  -0.033180   0.186790
     7  Cl  17.896130   0.004755   0.113875  -0.025340  -0.020167
     8  H    0.004755   0.683508   0.001936   0.029527  -0.000323
     9  H    0.113875   0.001936   0.583211  -0.015753  -0.024172
    10  Cl  -0.025340   0.029527  -0.015753  17.582604   0.039301
    11  H   -0.020167  -0.000323  -0.024172   0.039301   0.569468
 Mulliken charges:
               1
     1  C    0.162574
     2  C   -1.260966
     3  C    1.021287
     4  C   -0.766490
     5  C   -0.987989
     6  C    0.027149
     7  Cl   0.200996
     8  H    0.143521
     9  H    0.149077
    10  Cl   0.155601
    11  H    0.155240
 Sum of Mulliken charges =  -1.00000
 Mulliken charges with hydrogens summed into heavy atoms:
               1
     1  C    0.162574
     2  C   -1.117445
     3  C    1.021287
     4  C   -0.611250
     5  C   -0.838912
     6  C    0.027149
     7  Cl   0.200996
    10  Cl   0.155601
 APT charges:
               1
     1  C   -0.658866
     2  C   -0.041817
     3  C    0.521771
     4  C   -0.238815
     5  C   -0.075126
     6  C    0.661632
     7  Cl  -0.642996
     8  H   -0.023396
     9  H    0.002565
    10  Cl  -0.536811
    11  H    0.031859
 Sum of APT charges =  -1.00000
 APT charges with hydrogens summed into heavy atoms:
               1
     1  C   -0.658866
     2  C   -0.065213
     3  C    0.521771
     4  C   -0.206956
     5  C   -0.072561
     6  C    0.661632
     7  Cl  -0.642996
    10  Cl  -0.536811
 Electronic spatial extent (au):  <R**2>=           1686.5811
 Charge=             -1.0000 electrons
 Dipole moment (field-independent basis, Debye):
    X=             -3.8140    Y=              3.4231    Z=             -0.0000  Tot=              5.1249
 Quadrupole moment (field-independent basis, Debye-Ang):
   XX=            -70.7394   YY=            -92.6530   ZZ=            -67.2449
   XY=              3.4801   XZ=             -0.0000   YZ=              0.0000
 Traceless Quadrupole moment (field-independent basis, Debye-Ang):
   XX=              6.1397   YY=            -15.7739   ZZ=              9.6342
   XY=              3.4801   XZ=             -0.0000   YZ=              0.0000
 Octapole moment (field-independent basis, Debye-Ang**2):
  XXX=            -26.2929  YYY=             24.6067  ZZZ=             -0.0000  XYY=             -8.0074
  XXY=             15.4614  XXZ=             -0.0000  XZZ=             -2.2878  YZZ=              2.4605
  YYZ=             -0.0000  XYZ=              0.0000
 Hexadecapole moment (field-independent basis, Debye-Ang**3):
 XXXX=           -397.9570 YYYY=          -2109.3041 ZZZZ=            -87.0904 XXXY=            -26.5228
 XXXZ=             -0.0000 YYYX=            -59.7185 YYYZ=              0.0000 ZZZX=             -0.0000
 ZZZY=              0.0000 XXYY=           -398.3646 XXZZ=            -84.6818 YYZZ=           -340.8353
 XXYZ=              0.0000 YYXZ=             -0.0000 ZZXY=            -16.7838
 N-N= 4.317653799377D+02 E-N=-3.598950897660D+03  KE= 1.147939372624D+03
 Symmetry A'   KE= 1.049973833363D+03
 Symmetry A"   KE= 9.796553926161D+01
  Exact polarizability: 107.597   2.295 155.042   0.000  -0.000  63.247
 Approx polarizability: 139.596   3.313 173.283   0.000  -0.000  79.523
 Calling FoFJK, ICntrl=    100127 FMM=F ISym2X=1 I1Cent= 0 IOpClX= 0 NMat=1 NMatS=1 NMatT=0.
 Full mass-weighted force constant matrix:
 Low frequencies ---  -17.7245   -3.9479   -0.0004    0.0028    0.0034   16.3626
 Low frequencies ---   87.8386  220.2665  300.5843
 Diagonal vibrational polarizability:
        3.6816388      25.4152044       3.9744236
 Harmonic frequencies (cm**-1), IR intensities (KM/Mole), Raman scattering
 activities (A**4/AMU), depolarization ratios for plane and unpolarized
 incident light, reduced masses (AMU), force constants (mDyne/A),
 and normal coordinates:
                      1                      2                      3
                     A"                     A'                     A"
 Frequencies --     87.8367               220.2664               300.5838
 Red. masses --     12.1206                13.3094                 7.8100
 Frc consts  --      0.0551                 0.3805                 0.4158
 IR Inten    --      0.0806                 0.3944                 0.7719
  Atom  AN      X      Y      Z        X      Y      Z        X      Y      Z
     1   6     0.00   0.00  -0.30    -0.28   0.05  -0.00    -0.00  -0.00  -0.24
     2   6    -0.00   0.00  -0.31    -0.31   0.01   0.00     0.00  -0.00   0.21
     3   6    -0.00  -0.00  -0.18    -0.29   0.02   0.00     0.00   0.00   0.43
     4   6    -0.00  -0.00  -0.30    -0.31   0.04   0.00     0.00   0.00   0.26
     5   6     0.00   0.00  -0.34    -0.29  -0.01  -0.00    -0.00   0.00  -0.27
     6   6     0.00   0.00  -0.21    -0.26   0.01  -0.00    -0.00  -0.00  -0.35
     7  17    -0.00   0.00   0.30     0.30  -0.02   0.00    -0.00  -0.00   0.09
     8   1    -0.00   0.00  -0.34    -0.32   0.03   0.00     0.00  -0.00   0.27
     9   1    -0.00   0.00  -0.40    -0.29  -0.01  -0.00    -0.00   0.00  -0.50
    10  17     0.00  -0.00   0.29     0.32  -0.02  -0.00    -0.00   0.00  -0.11
    11   1    -0.00  -0.00  -0.29    -0.32   0.02   0.00     0.00   0.00   0.32
                      4                      5                      6
                     A'                     A'                     A"
 Frequencies --    306.4648               360.6724               404.6439
 Red. masses --     29.1435                 5.7447                 3.1610
 Frc consts  --      1.6127                 0.4403                 0.3049
 IR Inten    --      7.3447                 2.4650                 9.6739
  Atom  AN      X      Y      Z        X      Y      Z        X      Y      Z
     1   6     0.18  -0.03  -0.00     0.19   0.17  -0.00    -0.00  -0.00   0.25
     2   6     0.02  -0.09   0.00    -0.14   0.18   0.00    -0.00  -0.00  -0.22
     3   6    -0.07  -0.28   0.00    -0.23   0.03   0.00     0.00   0.00   0.03
     4   6    -0.13  -0.08   0.00    -0.16  -0.14   0.00     0.00   0.00   0.19
     5   6    -0.04  -0.01  -0.00     0.16  -0.16  -0.00    -0.00   0.00  -0.20
     6   6     0.04   0.15  -0.00     0.26   0.02  -0.00    -0.00  -0.00   0.07
     7  17     0.03   0.68   0.00    -0.13  -0.03   0.00     0.00  -0.00  -0.01
     8   1    -0.09   0.08   0.00    -0.26   0.38  -0.00     0.00  -0.00  -0.65
     9   1     0.05  -0.18  -0.00     0.28  -0.36  -0.00    -0.00   0.00  -0.54
    10  17    -0.02  -0.56  -0.00     0.11  -0.00  -0.00     0.00   0.00  -0.00
    11   1    -0.06   0.01   0.00    -0.30  -0.34   0.00     0.00   0.00   0.31
                      7                      8                      9
                     A'                     A"                     A'
 Frequencies --    476.5915               496.5664               604.4853
 Red. masses --     11.8943                 3.5750                 8.1448
 Frc consts  --      1.5918                 0.5194                 1.7535
 IR Inten    --    100.8420                 0.5917                 9.4575
  Atom  AN      X      Y      Z        X      Y      Z        X      Y      Z
     1   6     0.05  -0.34   0.00    -0.00  -0.00  -0.18     0.27  -0.33   0.00
     2   6    -0.10  -0.29  -0.00    -0.00  -0.00  -0.05    -0.26  -0.25  -0.00
     3   6    -0.05  -0.12  -0.00     0.00  -0.00   0.28    -0.13   0.08   0.00
     4   6    -0.03  -0.25  -0.00     0.00   0.00  -0.13    -0.18   0.34  -0.00
     5   6     0.04  -0.27   0.00    -0.00   0.00  -0.00     0.22   0.32   0.00
     6   6    -0.02  -0.32  -0.00    -0.00  -0.00   0.32     0.12   0.00  -0.00
     7  17     0.01   0.24  -0.00     0.00  -0.00  -0.02     0.03  -0.05  -0.00
     8   1    -0.06  -0.35   0.00     0.00  -0.00  -0.43    -0.31  -0.15  -0.00
     9   1     0.04  -0.28   0.00    -0.00   0.00  -0.43     0.26   0.23  -0.00
    10  17     0.03   0.33   0.00     0.00   0.00  -0.01    -0.03  -0.02   0.00
    11   1    -0.11  -0.38   0.00     0.00   0.00  -0.63    -0.25   0.23  -0.00
                     10                     11                     12
                     A'                     A"                     A"
 Frequencies --    725.0598               740.6878               796.7046
 Red. masses --      8.7361                 4.7620                 1.3891
 Frc consts  --      2.7059                 1.5393                 0.5195
 IR Inten    --      4.9397                 1.0970                38.0178
  Atom  AN      X      Y      Z        X      Y      Z        X      Y      Z
     1   6     0.28  -0.09   0.00    -0.00   0.00   0.23     0.00  -0.00  -0.02
     2   6     0.28  -0.07  -0.00    -0.00   0.00  -0.18     0.00  -0.00   0.00
     3   6    -0.01  -0.37   0.00     0.00   0.00   0.31     0.00  -0.00   0.06
     4   6    -0.29   0.00  -0.00     0.00  -0.00  -0.21    -0.00  -0.00  -0.12
     5   6    -0.32  -0.01   0.00     0.00  -0.00   0.17    -0.00   0.00  -0.10
     6   6     0.04   0.41  -0.00     0.00  -0.00  -0.30     0.00   0.00   0.08
     7  17    -0.00  -0.06   0.00    -0.00   0.00   0.01    -0.00   0.00  -0.00
     8   1     0.14   0.15  -0.00     0.00  -0.00  -0.44    -0.00   0.00  -0.01
     9   1    -0.10  -0.40  -0.00     0.00   0.00   0.58    -0.00   0.00   0.54
    10  17     0.00   0.10   0.00    -0.00  -0.00  -0.01    -0.00   0.00  -0.00
    11   1    -0.06   0.33  -0.00     0.00  -0.00  -0.37    -0.00   0.00   0.82
                     13                     14                     15
                     A"                     A"                     A'
 Frequencies --    905.7364               934.0422               969.7281
 Red. masses --      1.4299                 1.3212                 8.5895
 Frc consts  --      0.6911                 0.6791                 4.7590
 IR Inten    --      4.1663                 0.2135               224.5241
  Atom  AN      X      Y      Z        X      Y      Z        X      Y      Z
     1   6     0.00   0.00   0.02    -0.00   0.00  -0.01     0.24  -0.16  -0.00
     2   6     0.00   0.00  -0.17     0.00   0.00   0.05    -0.28  -0.08   0.00
     3   6    -0.00  -0.00   0.05     0.00  -0.00  -0.02     0.03   0.39  -0.00
     4   6    -0.00   0.00   0.04    -0.00   0.00   0.09     0.32  -0.19   0.00
     5   6     0.00   0.00  -0.05     0.00   0.00  -0.13    -0.29  -0.14  -0.00
     6   6     0.00  -0.00   0.05     0.00  -0.00   0.02     0.00   0.35   0.00
     7  17    -0.00   0.00  -0.00     0.00  -0.00  -0.00     0.00  -0.01  -0.00
     8   1    -0.00   0.00   0.94    -0.00   0.00  -0.31    -0.22  -0.17  -0.00
     9   1    -0.00   0.00   0.19    -0.00   0.00   0.76    -0.31  -0.08   0.00
    10  17    -0.00  -0.00  -0.00    -0.00   0.00   0.00    -0.00  -0.03   0.00
    11   1    -0.00   0.00  -0.21    -0.00   0.00  -0.55     0.29  -0.21  -0.00
                     16                     17                     18
                     A'                     A'                     A'
 Frequencies --   1007.1738              1093.8907              1135.5847
 Red. masses --      4.6995                 2.3254                 1.3027
 Frc consts  --      2.8088                 1.6394                 0.9898
 IR Inten    --     91.8494                47.2094                 5.0806
  Atom  AN      X      Y      Z        X      Y      Z        X      Y      Z
     1   6    -0.30   0.07  -0.00    -0.03  -0.07   0.00    -0.00   0.05  -0.00
     2   6    -0.10  -0.21  -0.00     0.16   0.00   0.00    -0.04  -0.03  -0.00
     3   6     0.01  -0.10   0.00     0.03   0.24  -0.00     0.01   0.02  -0.00
     4   6     0.05  -0.08  -0.00    -0.15   0.04   0.00    -0.00   0.09   0.00
     5   6     0.22   0.03   0.00    -0.01  -0.06  -0.00    -0.03  -0.10  -0.00
     6   6     0.08   0.34   0.00    -0.02   0.01   0.00     0.03  -0.04   0.00
     7  17     0.00  -0.00  -0.00     0.00   0.00  -0.00    -0.00   0.00  -0.00
     8   1     0.03  -0.44   0.00     0.40  -0.40  -0.00     0.00  -0.11  -0.00
     9   1     0.48  -0.40  -0.00     0.20  -0.45   0.00     0.22  -0.57   0.00
    10  17    -0.00   0.02  -0.00    -0.00  -0.02   0.00    -0.00  -0.00   0.00
    11   1    -0.07  -0.27   0.00    -0.44  -0.35  -0.00     0.38   0.67  -0.00
                     19                     20                     21
                     A'                     A'                     A'
 Frequencies --   1257.9806              1294.7265              1369.7777
 Red. masses --      1.8193                 4.0226                 2.6197
 Frc consts  --      1.6963                 3.9729                 2.8960
 IR Inten    --     13.1145                73.2445                 3.2891
  Atom  AN      X      Y      Z        X      Y      Z        X      Y      Z
     1   6    -0.07  -0.19   0.00    -0.13  -0.13  -0.00    -0.03   0.12  -0.00
     2   6    -0.00   0.14  -0.00    -0.12   0.17   0.00    -0.07  -0.14   0.00
     3   6     0.07  -0.01   0.00     0.17  -0.00   0.00     0.23  -0.01   0.00
     4   6     0.01  -0.04  -0.00    -0.16  -0.14  -0.00    -0.03   0.11  -0.00
     5   6     0.03   0.06   0.00    -0.10   0.10   0.00    -0.14  -0.01   0.00
     6   6    -0.05   0.02  -0.00     0.31  -0.03  -0.00     0.14  -0.07  -0.00
     7  17     0.00   0.00   0.00     0.00   0.01  -0.00    -0.00   0.00  -0.00
     8   1    -0.30   0.67   0.00     0.29  -0.57   0.00    -0.41   0.48   0.00
     9   1     0.34  -0.52  -0.00    -0.21   0.29  -0.00    -0.07  -0.19  -0.00
    10  17     0.00  -0.00  -0.00     0.00  -0.00  -0.00    -0.01   0.00  -0.00
    11   1     0.04  -0.01   0.00     0.19   0.39   0.00    -0.44  -0.47   0.00
                     22                     23                     24
                     A'                     A'                     A'
 Frequencies --   1414.4144              1569.3350              1603.7119
 Red. masses --      2.0777                 5.9762                 6.8446
 Frc consts  --      2.4489                 8.6718                10.3717
 IR Inten    --    118.7466                 6.4955                 1.6865
  Atom  AN      X      Y      Z        X      Y      Z        X      Y      Z
     1   6    -0.12  -0.07  -0.00     0.02   0.16  -0.00     0.16   0.13   0.00
     2   6     0.12  -0.10   0.00     0.15  -0.25  -0.00    -0.13  -0.06  -0.00
     3   6    -0.06   0.11   0.00    -0.13   0.16  -0.00     0.39   0.08   0.00
     4   6    -0.06   0.00  -0.00    -0.03  -0.33  -0.00    -0.31  -0.22   0.00
     5   6     0.05  -0.13   0.00    -0.11   0.40  -0.00     0.23  -0.06   0.00
     6   6     0.10   0.06  -0.00     0.05  -0.13   0.00    -0.32   0.06  -0.00
     7  17    -0.00   0.01   0.00     0.00  -0.00  -0.00     0.00  -0.01   0.00
     8   1    -0.25   0.60   0.00    -0.12   0.30  -0.00    -0.21   0.08  -0.00
     9   1    -0.28   0.50  -0.00     0.32  -0.40   0.00     0.02   0.39   0.00
    10  17    -0.00  -0.00  -0.00     0.00   0.00   0.00    -0.00  -0.00   0.00
    11   1     0.16   0.36   0.00     0.36   0.22  -0.00     0.14   0.49  -0.00
                     25                     26                     27
                     A'                     A'                     A'
 Frequencies --   3123.8060              3186.3324              3222.5189
 Red. masses --      1.0877                 1.0895                 1.0943
 Frc consts  --      6.2535                 6.5170                 6.6956
 IR Inten    --     45.3137                18.1282                12.2780
  Atom  AN      X      Y      Z        X      Y      Z        X      Y      Z
     1   6     0.00  -0.00  -0.00    -0.00   0.00   0.00    -0.00   0.00   0.00
     2   6    -0.08  -0.04   0.00     0.00   0.00   0.00     0.00  -0.00   0.00
     3   6     0.00  -0.00  -0.00     0.00  -0.00   0.00     0.00   0.00   0.00
     4   6     0.00   0.00  -0.00     0.02  -0.01   0.00    -0.07   0.05   0.00
     5   6    -0.00  -0.00  -0.00    -0.07  -0.04  -0.00    -0.02  -0.01  -0.00
     6   6    -0.00   0.00   0.00     0.00  -0.00  -0.00     0.00  -0.00  -0.00
     7  17    -0.00  -0.00  -0.00     0.00   0.00  -0.00    -0.00   0.00  -0.00
     8   1     0.87   0.48   0.00    -0.02  -0.01  -0.00    -0.01  -0.00  -0.00
     9   1     0.02   0.01  -0.00     0.85   0.45   0.00     0.22   0.12   0.00
    10  17    -0.00   0.00  -0.00    -0.00   0.00   0.00    -0.00  -0.00  -0.00
    11   1     0.00  -0.00   0.00    -0.21   0.14  -0.00     0.80  -0.54   0.00

 -------------------
 - Thermochemistry -
 -------------------
 Temperature   298.150 Kelvin.  Pressure   1.00000 Atm.
 Atom     1 has atomic number  6 and mass  12.00000
 Atom     2 has atomic number  6 and mass  12.00000
 Atom     3 has atomic number  6 and mass  12.00000
 Atom     4 has atomic number  6 and mass  12.00000
 Atom     5 has atomic number  6 and mass  12.00000
 Atom     6 has atomic number  6 and mass  12.00000
 Atom     7 has atomic number 17 and mass  34.96885
 Atom     8 has atomic number  1 and mass   1.00783
 Atom     9 has atomic number  1 and mass   1.00783
 Atom    10 has atomic number 17 and mass  34.96885
 Atom    11 has atomic number  1 and mass   1.00783
 Molecular mass:   144.96118 amu.
 Principal axes and moments of inertia in atomic units:
                           1         2         3
     Eigenvalues --   309.535112724.379543033.91465
           X            0.07269   0.99735   0.00000
           Y            0.99735  -0.07269   0.00000
           Z            0.00000   0.00000   1.00000
 This molecule is an asymmetric top.
 Rotational symmetry number  1.
 Rotational temperatures (Kelvin)      0.27982     0.03179     0.02855
 Rotational constants (GHZ):           5.83049     0.66244     0.59486
 Zero-point vibrational energy     177103.1 (Joules/Mol)
                                   42.32865 (Kcal/Mol)
 Warning -- explicit consideration of   9 degrees of freedom as
           vibrations may cause significant error
 Vibrational temperatures:    126.38   316.91   432.47   440.93   518.93
          (Kelvin)            582.19   685.71   714.45   869.72  1043.20
                             1065.68  1146.28  1303.15  1343.88  1395.22
                             1449.10  1573.86  1633.85  1809.95  1862.82
                             1970.80  2035.03  2257.92  2307.38  4494.46
                             4584.42  4636.49
 
 Zero-point correction=                           0.067455 (Hartree/Particle)
 Thermal correction to Energy=                    0.074239
 Thermal correction to Enthalpy=                  0.075183
 Thermal correction to Gibbs Free Energy=         0.035300
 Sum of electronic and zero-point Energies=          -1150.721467
 Sum of electronic and thermal Energies=             -1150.714683
 Sum of electronic and thermal Enthalpies=           -1150.713739
 Sum of electronic and thermal Free Energies=        -1150.753621
 
                     E (Thermal)             CV                S
                      KCal/Mol        Cal/Mol-Kelvin    Cal/Mol-Kelvin
 Total                   46.586             24.764             83.940
 Electronic               0.000              0.000              0.000
 Translational            0.889              2.981             40.825
 Rotational               0.889              2.981             29.327
 Vibrational             44.808             18.803             13.789
 Vibration     1          0.601              1.958              3.708
 Vibration     2          0.647              1.810              1.957
 Vibration     3          0.693              1.673              1.414
 Vibration     4          0.697              1.661              1.381
 Vibration     5          0.735              1.553              1.119
 Vibration     6          0.770              1.460              0.946
 Vibration     7          0.833              1.302              0.719
 Vibration     8          0.852              1.258              0.667
 Vibration     9          0.963              1.022              0.442
                       Q            Log10(Q)             Ln(Q)
 Total Bot       0.579340D-16        -16.237067        -37.387228
 Total V=0       0.616669D+15         14.790052         34.055354
 Vib (Bot)       0.147491D-29        -29.831234        -68.688955
 Vib (Bot)    1  0.234163D+01          0.369519          0.850849
 Vib (Bot)    2  0.897919D+00         -0.046763         -0.107675
 Vib (Bot)    3  0.632482D+00         -0.198952         -0.458103
 Vib (Bot)    4  0.618273D+00         -0.208820         -0.480825
 Vib (Bot)    5  0.507963D+00         -0.294168         -0.677346
 Vib (Bot)    6  0.438974D+00         -0.357561         -0.823315
 Vib (Bot)    7  0.351946D+00         -0.453524         -1.044278
 Vib (Bot)    8  0.331986D+00         -0.478880         -1.102663
 Vib (Bot)    9  0.245879D+00         -0.609279         -1.402916
 Vib (V=0)       0.156995D+02          1.195885          2.753626
 Vib (V=0)    1  0.289442D+01          0.461562          1.062785
 Vib (V=0)    2  0.152774D+01          0.184051          0.423792
 Vib (V=0)    3  0.130625D+01          0.116025          0.267158
 Vib (V=0)    4  0.129515D+01          0.112320          0.258625
 Vib (V=0)    5  0.121276D+01          0.083775          0.192899
 Vib (V=0)    6  0.116536D+01          0.066459          0.153026
 Vib (V=0)    7  0.111145D+01          0.045888          0.105662
 Vib (V=0)    8  0.110018D+01          0.041463          0.095473
 Vib (V=0)    9  0.105719D+01          0.024151          0.055611
 Electronic      0.100000D+01          0.000000          0.000000
 Translational   0.686012D+08          7.836331         18.043820
 Rotational      0.572580D+06          5.757836         13.257907
 ***** Axes restored to original set *****
 -------------------------------------------------------------------
 Center     Atomic                   Forces (Hartrees/Bohr)
 Number     Number              X              Y              Z
 -------------------------------------------------------------------
      1        6           0.000156180   -0.000076911   -0.000000000
      2        6          -0.000181689   -0.000077530    0.000000000
      3        6           0.000176613    0.000109330    0.000000000
      4        6          -0.000095755   -0.000034799    0.000000000
      5        6           0.000001561   -0.000013530   -0.000000000
      6        6          -0.000109094    0.000156386    0.000000000
      7       17           0.000049817   -0.000000068   -0.000000000
      8        1           0.000043472    0.000029500    0.000000000
      9        1           0.000023184   -0.000025886   -0.000000000
     10       17          -0.000067377   -0.000058024   -0.000000000
     11        1           0.000003088   -0.000008468   -0.000000000
 -------------------------------------------------------------------
 Cartesian Forces:  Max     0.000181689 RMS     0.000072579
 FormGI is forming the generalized inverse of G from B-inverse, IUseBI=4.

 GradGradGradGradGradGradGradGradGradGradGradGradGradGradGradGradGradGrad
 Berny optimization.
 Internal  Forces:  Max     0.000102152 RMS     0.000034803
 Search for a local minimum.
 Step number   1 out of a maximum of    2
 All quantities printed in internal units (Hartrees-Bohrs-Radians)
 Second derivative matrix not updated -- analytic derivatives used.
 ITU=  0
     Eigenvalues ---    0.01209   0.01634   0.02175   0.02655   0.02844
     Eigenvalues ---    0.03031   0.03334   0.04218   0.09795   0.10676
     Eigenvalues ---    0.11361   0.12054   0.13784   0.17041   0.19225
     Eigenvalues ---    0.19508   0.22343   0.25331   0.28138   0.34259
     Eigenvalues ---    0.36008   0.36655   0.40238   0.41989   0.46433
     Eigenvalues ---    0.46981   0.51287
 Angle between quadratic step and forces=  20.84 degrees.
 Linear search not attempted -- first point.
 Iteration  1 RMS(Cart)=  0.00017067 RMS(Int)=  0.00000003
 Iteration  2 RMS(Cart)=  0.00000004 RMS(Int)=  0.00000000
 ClnCor:  largest displacement from symmetrization is 2.87D-11 for atom    11.
 Variable       Old X    -DE/DX   Delta X   Delta X   Delta X     New X
                                 (Linear)    (Quad)   (Total)
    R1        2.67023  -0.00009   0.00000  -0.00034  -0.00034   2.66988
    R2        2.60335  -0.00010   0.00000  -0.00035  -0.00035   2.60299
    R3        2.62576   0.00003   0.00000   0.00016   0.00016   2.62592
    R4        2.05921   0.00003   0.00000   0.00013   0.00013   2.05934
    R5        2.62358   0.00003   0.00000   0.00012   0.00012   2.62371
    R6        3.37207  -0.00009   0.00000  -0.00063  -0.00063   3.37144
    R7        2.63105  -0.00004   0.00000  -0.00011  -0.00011   2.63094
    R8        2.04572   0.00001   0.00000   0.00005   0.00005   2.04576
    R9        2.63099   0.00002   0.00000   0.00011   0.00011   2.63110
   R10        2.05038   0.00003   0.00000   0.00007   0.00007   2.05045
   R11        3.46525  -0.00004   0.00000  -0.00013  -0.00013   3.46511
    A1        1.95028   0.00005   0.00000   0.00031   0.00031   1.95059
    A2        2.14036   0.00001   0.00000   0.00006   0.00006   2.14042
    A3        2.10048   0.00003   0.00000   0.00031   0.00031   2.10079
    A4        2.04235  -0.00004   0.00000  -0.00037  -0.00037   2.04198
    A5        2.13775  -0.00006   0.00000  -0.00040  -0.00040   2.13736
    A6        2.09041   0.00004   0.00000   0.00027   0.00027   2.09068
    A7        2.05502   0.00002   0.00000   0.00013   0.00013   2.05515
    A8        2.04464   0.00003   0.00000   0.00029   0.00029   2.04493
    A9        2.11411  -0.00002   0.00000  -0.00016  -0.00016   2.11395
   A10        2.12444  -0.00001   0.00000  -0.00013  -0.00013   2.12431
   A11        2.05580  -0.00002   0.00000  -0.00009  -0.00009   2.05571
   A12        2.10199  -0.00002   0.00000  -0.00026  -0.00026   2.10173
   A13        2.12539   0.00004   0.00000   0.00035   0.00035   2.12574
   A14        2.23755  -0.00001   0.00000  -0.00017  -0.00017   2.23738
   A15        2.07209   0.00007   0.00000   0.00043   0.00043   2.07252
   A16        1.97355  -0.00006   0.00000  -0.00026  -0.00026   1.97329
    D1       -0.00000   0.00000   0.00000   0.00000   0.00000   0.00000
    D2        3.14159   0.00000   0.00000   0.00000   0.00000   3.14159
    D3        0.00000   0.00000   0.00000   0.00000   0.00000   0.00000
    D4        3.14159  -0.00000   0.00000   0.00000   0.00000   3.14159
    D5        0.00000  -0.00000   0.00000  -0.00000   0.00000   0.00000
    D6        3.14159   0.00000   0.00000  -0.00000   0.00000   3.14159
    D7        3.14159  -0.00000   0.00000  -0.00000   0.00000   3.14159
    D8        0.00000  -0.00000   0.00000  -0.00000  -0.00000   0.00000
    D9       -0.00000   0.00000   0.00000   0.00000   0.00000   0.00000
   D10        3.14159   0.00000   0.00000   0.00000   0.00000   3.14159
   D11        3.14159  -0.00000   0.00000  -0.00000   0.00000   3.14159
   D12       -0.00000   0.00000   0.00000   0.00000   0.00000   0.00000
   D13        0.00000   0.00000   0.00000   0.00000   0.00000   0.00000
   D14        3.14159   0.00000   0.00000   0.00000   0.00000   3.14159
   D15        3.14159  -0.00000   0.00000   0.00000   0.00000   3.14159
   D16        0.00000   0.00000   0.00000   0.00000   0.00000   0.00000
   D17       -0.00000  -0.00000   0.00000  -0.00000   0.00000   0.00000
   D18        3.14159   0.00000   0.00000  -0.00000   0.00000   3.14159
   D19        3.14159  -0.00000   0.00000  -0.00000   0.00000   3.14159
   D20        0.00000  -0.00000   0.00000  -0.00000   0.00000   0.00000
         Item               Value     Threshold  Converged?
 Maximum Force            0.000102     0.000450     YES
 RMS     Force            0.000035     0.000300     YES
 Maximum Displacement     0.000423     0.001800     YES
 RMS     Displacement     0.000171     0.001200     YES
 Predicted change in Energy=-1.546164D-07
 Optimization completed.
    -- Stationary point found.
                           ----------------------------
                           !   Optimized Parameters   !
                           ! (Angstroms and Degrees)  !
 --------------------------                            --------------------------
 ! Name  Definition              Value          Derivative Info.                !
 --------------------------------------------------------------------------------
 ! R1    R(1,2)                  1.413          -DE/DX =   -0.0001              !
 ! R2    R(1,6)                  1.3776         -DE/DX =   -0.0001              !
 ! R3    R(2,3)                  1.3895         -DE/DX =    0.0                 !
 ! R4    R(2,8)                  1.0897         -DE/DX =    0.0                 !
 ! R5    R(3,4)                  1.3883         -DE/DX =    0.0                 !
 ! R6    R(3,10)                 1.7844         -DE/DX =   -0.0001              !
 ! R7    R(4,5)                  1.3923         -DE/DX =    0.0                 !
 ! R8    R(4,11)                 1.0825         -DE/DX =    0.0                 !
 ! R9    R(5,6)                  1.3923         -DE/DX =    0.0                 !
 ! R10   R(5,9)                  1.085          -DE/DX =    0.0                 !
 ! R11   R(6,7)                  1.8337         -DE/DX =    0.0                 !
 ! A1    A(2,1,6)              111.7425         -DE/DX =    0.0                 !
 ! A2    A(1,2,3)              122.6334         -DE/DX =    0.0                 !
 ! A3    A(1,2,8)              120.3487         -DE/DX =    0.0                 !
 ! A4    A(3,2,8)              117.0179         -DE/DX =    0.0                 !
 ! A5    A(2,3,4)              122.4843         -DE/DX =   -0.0001              !
 ! A6    A(2,3,10)             119.7716         -DE/DX =    0.0                 !
 ! A7    A(4,3,10)             117.7441         -DE/DX =    0.0                 !
 ! A8    A(3,4,5)              117.1492         -DE/DX =    0.0                 !
 ! A9    A(3,4,11)             121.1295         -DE/DX =    0.0                 !
 ! A10   A(5,4,11)             121.7214         -DE/DX =    0.0                 !
 ! A11   A(4,5,6)              117.7886         -DE/DX =    0.0                 !
 ! A12   A(4,5,9)              120.4353         -DE/DX =    0.0                 !
 ! A13   A(6,5,9)              121.7761         -DE/DX =    0.0                 !
 ! A14   A(1,6,5)              128.202          -DE/DX =    0.0                 !
 ! A15   A(1,6,7)              118.7219         -DE/DX =    0.0001              !
 ! A16   A(5,6,7)              113.0761         -DE/DX =   -0.0001              !
 ! D1    D(6,1,2,3)              0.0            -DE/DX =    0.0                 !
 ! D2    D(6,1,2,8)            180.0            -DE/DX =    0.0                 !
 ! D3    D(2,1,6,5)              0.0            -DE/DX =    0.0                 !
 ! D4    D(2,1,6,7)            180.0            -DE/DX =    0.0                 !
 ! D5    D(1,2,3,4)              0.0            -DE/DX =    0.0                 !
 ! D6    D(1,2,3,10)           180.0            -DE/DX =    0.0                 !
 ! D7    D(8,2,3,4)            180.0            -DE/DX =    0.0                 !
 ! D8    D(8,2,3,10)             0.0            -DE/DX =    0.0                 !
 ! D9    D(2,3,4,5)              0.0            -DE/DX =    0.0                 !
 ! D10   D(2,3,4,11)           180.0            -DE/DX =    0.0                 !
 ! D11   D(10,3,4,5)           180.0            -DE/DX =    0.0                 !
 ! D12   D(10,3,4,11)            0.0            -DE/DX =    0.0                 !
 ! D13   D(3,4,5,6)              0.0            -DE/DX =    0.0                 !
 ! D14   D(3,4,5,9)            180.0            -DE/DX =    0.0                 !
 ! D15   D(11,4,5,6)           180.0            -DE/DX =    0.0                 !
 ! D16   D(11,4,5,9)             0.0            -DE/DX =    0.0                 !
 ! D17   D(4,5,6,1)              0.0            -DE/DX =    0.0                 !
 ! D18   D(4,5,6,7)            180.0            -DE/DX =    0.0                 !
 ! D19   D(9,5,6,1)            180.0            -DE/DX =    0.0                 !
 ! D20   D(9,5,6,7)              0.0            -DE/DX =    0.0                 !
 --------------------------------------------------------------------------------
 GradGradGradGradGradGradGradGradGradGradGradGradGradGradGradGradGradGrad


 ----------------------------------------------------------------------

 Electric dipole moment (input orientation):
 (Debye = 10**-18 statcoulomb cm , SI units = C m)
                  (au)            (Debye)         (10**-30 SI)
   Tot        0.201628D+01      0.512486D+01      0.170947D+02
   x          0.186891D+01      0.475029D+01      0.158453D+02
   y         -0.756677D+00     -0.192328D+01     -0.641537D+01
   z          0.000000D+00      0.000000D+00      0.000000D+00

 Dipole polarizability, Alpha (input orientation).
 (esu units = cm**3 , SI units = C**2 m**2 J**-1)
 Alpha(0;0):
               (au)            (10**-24 esu)      (10**-40 SI)
   iso        0.108629D+03      0.160971D+02      0.179105D+02
   aniso      0.796106D+02      0.117971D+02      0.131260D+02
   xx         0.144081D+03      0.213506D+02      0.237557D+02
   yx         0.201286D+02      0.298275D+01      0.331876D+01
   yy         0.118558D+03      0.175685D+02      0.195476D+02
   zx         0.000000D+00      0.000000D+00      0.000000D+00
   zy         0.000000D+00      0.000000D+00      0.000000D+00
   zz         0.632473D+02      0.937228D+01      0.104281D+02

 ----------------------------------------------------------------------

 Dipole orientation:
     6          0.41325809          1.02070139         -3.14818727
     6          1.16258709          2.87146046         -1.37524899
     6          1.00895311          2.49200166          1.21839765
     6          0.10612709          0.26212207          2.26516796
     6         -0.65756088         -1.62410204          0.59743067
     6         -0.45990918         -1.13592440         -1.98030333
    17         -1.53005353         -3.77906160         -3.94919768
     1          1.89734998          4.68624287         -2.01322958
     1         -1.37957394         -3.40739380          1.30638195
    17          1.99600699          4.92991467          3.32865032
     1          0.00439504          0.01085525          4.29284435

 Electric dipole moment (dipole orientation):
 (Debye = 10**-18 statcoulomb cm , SI units = C m)
                  (au)            (Debye)         (10**-30 SI)
   Tot        0.201628D+01      0.512486D+01      0.170947D+02
   x          0.000000D+00      0.000000D+00      0.000000D+00
   y          0.000000D+00      0.000000D+00      0.000000D+00
   z          0.201628D+01      0.512486D+01      0.170947D+02

 Dipole polarizability, Alpha (dipole orientation).
 (esu units = cm**3 , SI units = C**2 m**2 J**-1)
 Alpha(0;0):
               (au)            (10**-24 esu)      (10**-40 SI)
   iso        0.108629D+03      0.160971D+02      0.179105D+02
   aniso      0.796106D+02      0.117971D+02      0.131260D+02
   xx         0.735157D+02      0.108939D+02      0.121211D+02
   yx         0.253617D+02      0.375822D+01      0.418158D+01
   yy         0.125888D+03      0.186547D+02      0.207561D+02
   zx         0.875802D+01      0.129781D+01      0.144400D+01
   zy         0.216313D+02      0.320543D+01      0.356653D+01
   zz         0.126483D+03      0.187428D+02      0.208541D+02

 ----------------------------------------------------------------------
 1\1\GINC-SH03-08N41\Freq\RM062X\6-311++G(d,p)\C6H3Cl2(1-)\JLAPIER\03-A
 pr-2026\0\\#N Geom=AllCheck Guess=TCheck SCRF=Check GenChk RM062X/6-31
 1++G(d,p) Freq\\1,4 dichlorobenzene anion radical\\-1,1\C,-1.325497724
 7,1.1653360448,0.\C,-0.0593444387,1.7926245929,0.\C,1.1315385087,1.076
 7467202,0.\C,1.1672239352,-0.3111347234,0.\C,-0.0549267491,-0.97808261
 22,0.\C,-1.2147113794,-0.2078333291,0.\Cl,-2.746749205,-1.2155150554,0
 .\H,0.0165461385,2.8796637891,0.\H,-0.089259315,-2.0625518694,0.\Cl,2.
 6889429439,1.9477558824,0.\H,2.1079640393,-0.8467792758,0.\\Version=ES
 64L-G16RevB.01\State=1-A'\HF=-1150.7889218\RMSD=4.585e-09\RMSF=7.258e-
 05\ZeroPoint=0.067455\Thermal=0.074239\Dipole=1.8689067,-0.7566765,0.\
 DipoleDeriv=-0.4797764,-0.1243209,0.,-0.3750627,-1.0104713,0.,0.,0.,-0
 .4863513,-0.1723907,0.1229727,0.,-0.0564834,0.1727067,0.,0.,0.,-0.1257
 673,1.0775255,0.4437709,0.,0.5423166,0.4684115,0.,0.,0.,0.0193764,-0.3
 175342,-0.1616041,0.,-0.0595496,-0.1958533,0.,0.,0.,-0.2030577,-0.0281
 019,-0.0508903,0.,-0.1314532,-0.0865496,0.,0.,0.,-0.1107262,0.9162664,
 0.855604,0.,1.0911688,1.0756363,0.,0.,0.,-0.0070079,-0.9551742,-0.6893
 767,0.,-0.5482748,-0.7116723,0.,0.,0.,-0.2621409,0.0271228,-0.0544782,
 0.,-0.1096615,-0.1749552,0.,0.,0.,0.0776452,0.0493224,0.0095696,0.,0.0
 233114,-0.1667593,0.,0.,0.,0.125131,-1.0383062,-0.4160966,0.,-0.430788
 1,-0.3977642,0.,0.,0.,-0.1743613,-0.0789536,0.0648496,0.,0.0544766,0.0
 272707,0.,0.,0.,0.1472601\Polar=144.0807368,20.1286125,118.5580206,0.,
 0.,63.2473051\Quadrupole=-10.6270949,3.4643136,7.1627813,-4.8385601,0.
 ,0.\PG=CS [SG(C6H3Cl2)]\NImag=0\\0.36614063,0.10133747,0.48979430,0.,0
 .,0.06892538,-0.23225124,-0.08217384,0.,0.57072809,-0.10293886,-0.1351
 9912,0.,-0.00226883,0.70287759,0.,0.,-0.05087046,0.,0.,0.13632356,-0.0
 5346381,-0.03759906,0.,-0.23443471,0.15027399,0.,0.49152869,0.03234080
 ,0.06568099,0.,0.05906637,-0.18067728,0.,-0.08190701,0.62913542,0.,0.,
 0.02154654,0.,0.,-0.06773729,0.,0.,0.12202120,-0.01174218,-0.03279006,
 0.,0.02847179,0.02181769,0.,-0.10565185,0.05793581,0.,0.73694494,-0.03
 077397,-0.05358561,0.,0.08355138,-0.03034288,0.,-0.01792896,-0.3357223
 9,0.,-0.04471357,0.68197184,0.,0.,-0.00682022,0.,0.,0.01140152,0.,0.,-
 0.06393919,0.,0.,0.11898492,0.03831523,0.06901400,0.,-0.06887717,0.014
 00753,0.,0.03045311,-0.08992387,0.,-0.29282787,-0.05831042,0.,0.652130
 25,0.02098962,-0.02734113,0.,-0.00308648,-0.00294021,0.,-0.02405931,-0
 .03032789,0.,-0.13187232,-0.17441510,0.,0.01321433,0.74330364,0.,0.,0.
 01975514,0.,0.,-0.00554961,0.,0.,0.00933213,0.,0.,-0.05796315,0.,0.,0.
 12820343,-0.09581709,0.03791830,0.,0.02537817,-0.03680675,0.,-0.027019
 42,0.03831773,0.,-0.06290619,-0.03320465,0.,-0.24020657,0.14681636,0.,
 0.46306006,0.00920405,-0.28380372,0.,-0.04999935,-0.03200899,0.,0.0233
 7934,-0.06055846,0.,0.03923820,0.06418838,0.,0.07163080,-0.17905941,0.
 ,-0.12833738,0.51995196,0.,0.,-0.05557172,0.,0.,-0.00203802,0.,0.,-0.0
 1375144,0.,0.,0.01172190,0.,0.,-0.06760563,0.,0.,0.12730212,0.00290068
 ,-0.04075793,0.,-0.00243680,0.00224848,0.,0.00206625,-0.00062441,0.,-0
 .00247098,0.00672028,0.,-0.04529446,-0.02665513,0.,-0.06806418,0.01738
 564,0.,0.11830661,-0.02322315,-0.04682910,0.,-0.00319539,-0.00081352,0
 .,0.00122761,0.00039314,0.,-0.00135262,0.00115914,0.,-0.00127008,-0.00
 123944,0.,-0.01424060,-0.01413266,0.,0.04481810,0.06111054,0.,0.,-0.00
 021241,0.,0.,0.00689052,0.,0.,-0.00025692,0.,0.,0.00367918,0.,0.,0.004
 22042,0.,0.,-0.02205404,0.,0.,0.00995548,-0.00613913,-0.02570069,0.,-0
 .04902971,-0.01352072,0.,-0.00001733,0.02811968,0.,-0.00398575,0.00247
 904,0.,-0.00142916,-0.00044976,0.,-0.00160077,-0.00693362,0.,-0.000033
 67,-0.00049879,0.,0.06080065,-0.01016100,-0.00812779,0.,-0.00255577,-0
 .31761354,0.,-0.00407306,-0.01901631,0.,0.00428041,0.00085301,0.,-0.00
 093010,0.00104534,0.,-0.00102279,-0.00170286,0.,-0.00008464,-0.0003089
 0,0.,0.01428292,0.34427235,0.,0.,-0.00242465,0.,0.,-0.03753226,0.,0.,0
 .00413860,0.,0.,0.00634107,0.,0.,-0.00171781,0.,0.,0.01047344,0.,0.,0.
 00035448,0.,0.,0.02399685,-0.00386843,0.00393774,0.,-0.00150029,-0.000
 53981,0.,-0.00315399,-0.00151968,0.,0.00354377,-0.02767766,0.,-0.05579
 804,-0.00944561,0.,0.00552228,0.02486363,0.,-0.00043684,0.00067040,0.,
 0.00017056,0.00005719,0.,0.05551167,0.00518115,-0.00157624,0.,0.000609
 41,0.00157178,0.,-0.00264245,0.00161997,0.,0.00223437,-0.01015320,0.,-
 0.00738199,-0.33682790,0.,-0.00693817,-0.01401591,0.,-0.00093959,0.001
 36839,0.,-0.00006967,-0.00016238,0.,0.01041892,0.35793635,0.,0.,0.0041
 9764,0.,0.,0.00033468,0.,0.,0.00880867,0.,0.,0.00267826,0.,0.,-0.03507
 260,0.,0.,0.00311326,0.,0.,-0.00149783,0.,0.,-0.00206237,0.,0.,0.02330
 157,-0.00408342,0.00732246,0.,-0.03786683,-0.03197377,0.,-0.10005954,-
 0.03781569,0.,-0.01683675,-0.00711470,0.,0.00037968,-0.00176419,0.,0.0
 0305670,0.00283902,0.,-0.00283929,-0.00267036,0.,0.00111370,0.00018700
 ,0.,-0.00082048,-0.00000964,0.,0.15632457,-0.00106989,0.00123550,0.,0.
 00184289,0.00107985,0.,-0.03538039,-0.06125810,0.,-0.03809713,-0.01628
 930,0.,0.00382023,-0.00369177,0.,0.00010264,0.00136325,0.,-0.00115846,
 -0.00056079,0.,0.00088693,0.00152166,0.,-0.00146652,-0.00039379,0.,0.0
 7091657,0.07633540,0.,0.,0.00348286,0.,0.,0.00392348,0.,0.,-0.02127915
 ,0.,0.,0.00299982,0.,0.,0.00476415,0.,0.,0.00122635,0.,0.,-0.00139396,
 0.,0.,-0.00228212,0.,0.,0.00047980,0.,0.,0.01078407,0.00000877,-0.0005
 0838,0.,0.00181871,-0.00029895,0.,-0.00024741,-0.00398975,0.,-0.272538
 93,0.12697323,0.,-0.01684501,0.01631250,0.,-0.00140299,-0.00327033,0.,
 -0.00169732,-0.00026512,0.,0.00015061,0.00001985,0.,0.00082979,-0.0004
 6234,0.,0.00163164,-0.00039688,0.,0.28829214,-0.00088623,-0.00024806,0
 .,-0.00179041,-0.00593369,0.,0.02870929,-0.00926910,0.,0.12331923,-0.1
 2766390,0.,-0.01387042,0.01149388,0.,-0.00260468,-0.00022156,0.,-0.000
 95233,-0.00014679,0.,0.00140468,-0.00076058,0.,0.00070139,0.00063293,0
 .,0.00008330,0.00065810,0.,-0.13411383,0.13145877,0.,0.,-0.00200809,0.
 ,0.,0.00485388,0.,0.,0.00111685,0.,0.,-0.02908410,0.,0.,0.00163352,0.,
 0.,0.00718379,0.,0.,0.00031507,0.,0.,0.00071476,0.,0.,-0.00428109,0.,0
 .,-0.00270531,0.,0.,0.02226073\\-0.00015618,0.00007691,0.,0.00018169,0
 .00007753,0.,-0.00017661,-0.00010933,0.,0.00009575,0.00003480,0.,-0.00
 000156,0.00001353,0.,0.00010909,-0.00015639,0.,-0.00004982,0.00000007,
 0.,-0.00004347,-0.00002950,0.,-0.00002318,0.00002589,0.,0.00006738,0.0
 0005802,0.,-0.00000309,0.00000847,0.\\\@


 I LOVE THOSE WHO LONG FOR THE IMPOSSIBLE.

                                 -- GOETHE
 Job cpu time:       0 days  0 hours 12 minutes 55.0 seconds.
 Elapsed time:       0 days  0 hours  3 minutes 15.2 seconds.
 File lengths (MBytes):  RWF=     78 Int=      0 D2E=      0 Chk=      5 Scr=      1
 Normal termination of Gaussian 16 at Fri Apr  3 14:18:53 2026.
