 Entering Gaussian System, Link 0=g16
 Initial command:
 /share/software/user/restricted/gaussian/g16.B01/l1.exe "/home/users/jlapier/Chloroaromatics/Gau-20273.inp" -scrdir="/home/users/jlapier/Chloroaromatics/"
 Entering Link 1 = /share/software/user/restricted/gaussian/g16.B01/l1.exe PID=     20274.
  
 Copyright (c) 1988-2017, Gaussian, Inc.  All Rights Reserved.
  
 This is part of the Gaussian(R) 16 program.  It is based on
 the Gaussian(R) 09 system (copyright 2009, Gaussian, Inc.),
 the Gaussian(R) 03 system (copyright 2003, Gaussian, Inc.),
 the Gaussian(R) 98 system (copyright 1998, Gaussian, Inc.),
 the Gaussian(R) 94 system (copyright 1995, Gaussian, Inc.),
 the Gaussian 92(TM) system (copyright 1992, Gaussian, Inc.),
 the Gaussian 90(TM) system (copyright 1990, Gaussian, Inc.),
 the Gaussian 88(TM) system (copyright 1988, Gaussian, Inc.),
 the Gaussian 86(TM) system (copyright 1986, Carnegie Mellon
 University), and the Gaussian 82(TM) system (copyright 1983,
 Carnegie Mellon University). Gaussian is a federally registered
 trademark of Gaussian, Inc.
  
 This software contains proprietary and confidential information,
 including trade secrets, belonging to Gaussian, Inc.
  
 This software is provided under written license and may be
 used, copied, transmitted, or stored only in accord with that
 written license.
  
 The following legend is applicable only to US Government
 contracts under FAR:
  
                    RESTRICTED RIGHTS LEGEND
  
 Use, reproduction and disclosure by the US Government is
 subject to restrictions as set forth in subparagraphs (a)
 and (c) of the Commercial Computer Software - Restricted
 Rights clause in FAR 52.227-19.
  
 Gaussian, Inc.
 340 Quinnipiac St., Bldg. 40, Wallingford CT 06492
  
  
 ---------------------------------------------------------------
 Warning -- This program may not be used in any manner that
 competes with the business of Gaussian, Inc. or will provide
 assistance to any competitor of Gaussian, Inc.  The licensee
 of this program is prohibited from giving any competitor of
 Gaussian, Inc. access to this program.  By using this program,
 the user acknowledges that Gaussian, Inc. is engaged in the
 business of creating and licensing software in the field of
 computational chemistry and represents and warrants to the
 licensee that it is not a competitor of Gaussian, Inc. and that
 it will not use this program in any manner prohibited above.
 ---------------------------------------------------------------
  

 Cite this work as:
 Gaussian 16, Revision B.01,
 M. J. Frisch, G. W. Trucks, H. B. Schlegel, G. E. Scuseria, 
 M. A. Robb, J. R. Cheeseman, G. Scalmani, V. Barone, 
 G. A. Petersson, H. Nakatsuji, X. Li, M. Caricato, A. V. Marenich, 
 J. Bloino, B. G. Janesko, R. Gomperts, B. Mennucci, H. P. Hratchian, 
 J. V. Ortiz, A. F. Izmaylov, J. L. Sonnenberg, D. Williams-Young, 
 F. Ding, F. Lipparini, F. Egidi, J. Goings, B. Peng, A. Petrone, 
 T. Henderson, D. Ranasinghe, V. G. Zakrzewski, J. Gao, N. Rega, 
 G. Zheng, W. Liang, M. Hada, M. Ehara, K. Toyota, R. Fukuda, 
 J. Hasegawa, M. Ishida, T. Nakajima, Y. Honda, O. Kitao, H. Nakai, 
 T. Vreven, K. Throssell, J. A. Montgomery, Jr., J. E. Peralta, 
 F. Ogliaro, M. J. Bearpark, J. J. Heyd, E. N. Brothers, K. N. Kudin, 
 V. N. Staroverov, T. A. Keith, R. Kobayashi, J. Normand, 
 K. Raghavachari, A. P. Rendell, J. C. Burant, S. S. Iyengar, 
 J. Tomasi, M. Cossi, J. M. Millam, M. Klene, C. Adamo, R. Cammi, 
 J. W. Ochterski, R. L. Martin, K. Morokuma, O. Farkas, 
 J. B. Foresman, and D. J. Fox, Gaussian, Inc., Wallingford CT, 2016.
 
 ******************************************
 Gaussian 16:  ES64L-G16RevB.01 20-Dec-2017
                 3-Apr-2026 
 ******************************************
 %mem=8GB
 %nprocshare=4
 Will use up to    4 processors via shared memory.
 %chk=frequency_chks/13dichlorobenzene_anion_product_Freq.chk
 ------------------------------
 # opt freq 6-311++g(d,p) m062x
 ------------------------------
 1/18=20,19=15,26=3,38=1/1,3;
 2/9=110,12=2,17=6,18=5,40=1/2;
 3/5=4,6=6,7=1111,11=2,25=1,30=1,71=1,74=-55/1,2,3;
 4//1;
 5/5=2,38=5/2;
 6/7=2,8=2,9=2,10=2,28=1/1;
 7//1,2,3,16;
 1/18=20,19=15,26=3/3(2);
 2/9=110/2;
 99//99;
 2/9=110/2;
 3/5=4,6=6,7=1111,11=2,25=1,30=1,71=1,74=-55/1,2,3;
 4/5=5,16=3,69=1/1;
 5/5=2,38=5/2;
 7//1,2,3,16;
 1/18=20,19=15,26=3/3(-5);
 2/9=110/2;
 6/7=2,8=2,9=2,10=2,19=2,28=1/1;
 99/9=1/99;
 ---------------------------
 chlorobenzene anion radical
 ---------------------------
 Symbolic Z-matrix:
 Charge = -1 Multiplicity = 1
 C                    -1.17813   1.2097    0. 
 C                     0.05269   1.87256   0. 
 C                     1.24301   1.13982   0. 
 C                     1.20362  -0.25843   0. 
 C                    -0.02722  -0.92373   0. 
 C                    -1.21998  -0.18995   0. 
 Cl                   -2.76382  -1.02264   0. 
 H                    -0.05281  -2.00599   0. 
 H                     2.19308   1.65714   0. 
 H                     2.12542  -0.82566   0. 
 H                    -2.09434   1.78527   0. 
 

 GradGradGradGradGradGradGradGradGradGradGradGradGradGradGradGradGradGrad
 Berny optimization.
 Initialization pass.
                           ----------------------------
                           !    Initial Parameters    !
                           ! (Angstroms and Degrees)  !
 --------------------------                            --------------------------
 ! Name  Definition              Value          Derivative Info.                !
 --------------------------------------------------------------------------------
 ! R1    R(1,2)                  1.398          estimate D2E/DX2                !
 ! R2    R(1,6)                  1.4003         estimate D2E/DX2                !
 ! R3    R(1,11)                 1.082          estimate D2E/DX2                !
 ! R4    R(2,3)                  1.3978         estimate D2E/DX2                !
 ! R5    R(3,4)                  1.3988         estimate D2E/DX2                !
 ! R6    R(3,9)                  1.0818         estimate D2E/DX2                !
 ! R7    R(4,5)                  1.3991         estimate D2E/DX2                !
 ! R8    R(4,10)                 1.0823         estimate D2E/DX2                !
 ! R9    R(5,6)                  1.4004         estimate D2E/DX2                !
 ! R10   R(5,8)                  1.0826         estimate D2E/DX2                !
 ! R11   R(6,7)                  1.7541         estimate D2E/DX2                !
 ! A1    A(2,1,6)              120.0175         estimate D2E/DX2                !
 ! A2    A(2,1,11)             119.5578         estimate D2E/DX2                !
 ! A3    A(6,1,11)             120.4247         estimate D2E/DX2                !
 ! A4    A(1,2,3)              120.0792         estimate D2E/DX2                !
 ! A5    A(2,3,4)              120.0026         estimate D2E/DX2                !
 ! A6    A(2,3,9)              119.8154         estimate D2E/DX2                !
 ! A7    A(4,3,9)              120.182          estimate D2E/DX2                !
 ! A8    A(3,4,5)              120.006          estimate D2E/DX2                !
 ! A9    A(3,4,10)             119.9925         estimate D2E/DX2                !
 ! A10   A(5,4,10)             120.0015         estimate D2E/DX2                !
 ! A11   A(4,5,6)              120.0076         estimate D2E/DX2                !
 ! A12   A(4,5,8)              119.7472         estimate D2E/DX2                !
 ! A13   A(6,5,8)              120.2451         estimate D2E/DX2                !
 ! A14   A(1,6,5)              119.887          estimate D2E/DX2                !
 ! A15   A(1,6,7)              120.0537         estimate D2E/DX2                !
 ! A16   A(5,6,7)              120.0593         estimate D2E/DX2                !
 ! D1    D(6,1,2,3)              0.0            estimate D2E/DX2                !
 ! D2    D(11,1,2,3)           180.0            estimate D2E/DX2                !
 ! D3    D(2,1,6,5)              0.0            estimate D2E/DX2                !
 ! D4    D(2,1,6,7)            180.0            estimate D2E/DX2                !
 ! D5    D(11,1,6,5)           180.0            estimate D2E/DX2                !
 ! D6    D(11,1,6,7)             0.0            estimate D2E/DX2                !
 ! D7    D(1,2,3,4)              0.0            estimate D2E/DX2                !
 ! D8    D(1,2,3,9)            180.0            estimate D2E/DX2                !
 ! D9    D(2,3,4,5)              0.0            estimate D2E/DX2                !
 ! D10   D(2,3,4,10)           180.0            estimate D2E/DX2                !
 ! D11   D(9,3,4,5)            180.0            estimate D2E/DX2                !
 ! D12   D(9,3,4,10)             0.0            estimate D2E/DX2                !
 ! D13   D(3,4,5,6)              0.0            estimate D2E/DX2                !
 ! D14   D(3,4,5,8)            180.0            estimate D2E/DX2                !
 ! D15   D(10,4,5,6)           180.0            estimate D2E/DX2                !
 ! D16   D(10,4,5,8)             0.0            estimate D2E/DX2                !
 ! D17   D(4,5,6,1)              0.0            estimate D2E/DX2                !
 ! D18   D(4,5,6,7)            180.0            estimate D2E/DX2                !
 ! D19   D(8,5,6,1)            180.0            estimate D2E/DX2                !
 ! D20   D(8,5,6,7)              0.0            estimate D2E/DX2                !
 --------------------------------------------------------------------------------
 Trust Radius=3.00D-01 FncErr=1.00D-07 GrdErr=1.00D-06 EigMax=2.50D+02 EigMin=1.00D-04
 Number of steps in this run=     57 maximum allowed number of steps=    100.
 GradGradGradGradGradGradGradGradGradGradGradGradGradGradGradGradGradGrad

                          Input orientation:                          
 ---------------------------------------------------------------------
 Center     Atomic      Atomic             Coordinates (Angstroms)
 Number     Number       Type             X           Y           Z
 ---------------------------------------------------------------------
      1          6           0       -1.178130    1.209698    0.000000
      2          6           0        0.052694    1.872562    0.000000
      3          6           0        1.243005    1.139818    0.000000
      4          6           0        1.203621   -0.258429    0.000000
      5          6           0       -0.027218   -0.923735    0.000000
      6          6           0       -1.219982   -0.189948    0.000000
      7         17           0       -2.763824   -1.022644    0.000000
      8          1           0       -0.052811   -2.005992    0.000000
      9          1           0        2.193075    1.657139    0.000000
     10          1           0        2.125423   -0.825656    0.000000
     11          1           0       -2.094335    1.785266    0.000000
 ---------------------------------------------------------------------
                    Distance matrix (angstroms):
                    1          2          3          4          5
     1  C    0.000000
     2  C    1.397969   0.000000
     3  C    2.422144   1.397768   0.000000
     4  C    2.797880   2.421932   1.398802   0.000000
     5  C    2.424074   2.797438   2.423163   1.399141   0.000000
     6  C    1.400271   2.423561   2.799033   2.424571   1.400403
     7  Cl   2.738206   4.039182   4.553123   4.040377   2.738393
     8  H    3.406905   3.879988   3.402244   2.152347   1.082560
     9  H    3.400769   2.151195   1.081782   2.156019   3.404498
    10  H    3.880223   3.402438   2.154472   1.082342   2.154874
    11  H    1.081994   2.148803   3.399183   3.879846   3.407588
                    6          7          8          9         10
     6  C    0.000000
     7  Cl   1.754090   0.000000
     8  H    2.158774   2.883846   0.000000
     9  H    3.880810   5.634899   4.296805   0.000000
    10  H    3.405269   4.893214   2.477477   2.483716   0.000000
    11  H    2.160084   2.886620   4.305979   4.289325   4.962184
                   11
    11  H    0.000000
 Stoichiometry    C6H4Cl(1-)
 Framework group  CS[SG(C6H4Cl)]
 Deg. of freedom    19
 Full point group                 CS      NOp   2
 Largest Abelian subgroup         CS      NOp   2
 Largest concise Abelian subgroup C1      NOp   1
                         Standard orientation:                         
 ---------------------------------------------------------------------
 Center     Atomic      Atomic             Coordinates (Angstroms)
 Number     Number       Type             X           Y           Z
 ---------------------------------------------------------------------
      1          6           0        1.262693   -0.122309    0.000000
      2          6           0        1.370100   -1.516145    0.000000
      3          6           0        0.217964   -2.307560    0.000000
      4          6           0       -1.044450   -1.705100    0.000000
      5          6           0       -1.154084   -0.310261    0.000000
      6          6           0       -0.000000    0.482974    0.000000
      7         17           0       -0.135871    2.231793    0.000000
      8          1           0       -2.133186    0.151577    0.000000
      9          1           0        0.306044   -3.385751    0.000000
     10          1           0       -1.936482   -2.318079    0.000000
     11          1           0        2.160084    0.482174    0.000000
 ---------------------------------------------------------------------
 Rotational constants (GHZ):           5.9945812           1.5683997           1.2431473
 Standard basis: 6-311++G(d,p) (5D, 7F)
 There are   149 symmetry adapted cartesian basis functions of A'  symmetry.
 There are    48 symmetry adapted cartesian basis functions of A"  symmetry.
 There are   142 symmetry adapted basis functions of A'  symmetry.
 There are    48 symmetry adapted basis functions of A"  symmetry.
   190 basis functions,   305 primitive gaussians,   197 cartesian basis functions
    29 alpha electrons       29 beta electrons
       nuclear repulsion energy       302.8996536352 Hartrees.
 NAtoms=   11 NActive=   11 NUniq=   11 SFac= 1.00D+00 NAtFMM=   60 NAOKFM=F Big=F
 Integral buffers will be    131072 words long.
 Raffenetti 2 integral format.
 Two-electron integral symmetry is turned on.
 One-electron integrals computed using PRISM.
 NBasis=   190 RedAO= T EigKep=  2.08D-06  NBF=   142    48
 NBsUse=   190 1.00D-06 EigRej= -1.00D+00 NBFU=   142    48
 ExpMin= 3.60D-02 ExpMax= 1.06D+05 ExpMxC= 3.62D+03 IAcc=3 IRadAn=         5 AccDes= 0.00D+00
 Harris functional with IExCor= 1009 and IRadAn=       5 diagonalized for initial guess.
 HarFok:  IExCor= 1009 AccDes= 0.00D+00 IRadAn=         5 IDoV= 1 UseB2=F ITyADJ=14
 ICtDFT=  3500011 ScaDFX=  1.000000  1.000000  1.000000  1.000000
 FoFCou: FMM=F IPFlag=           0 FMFlag=      100000 FMFlg1=           0
         NFxFlg=           0 DoJE=T BraDBF=F KetDBF=T FulRan=T
         wScrn=  0.000000 ICntrl=       500 IOpCl=  0 I1Cent=   200000004 NGrid=           0
         NMat0=    1 NMatS0=      1 NMatT0=    0 NMatD0=    1 NMtDS0=    0 NMtDT0=    0
 Petite list used in FoFCou.
 Initial guess orbital symmetries:
       Occupied  (A') (A') (A') (A') (A') (A') (A') (A') (A') (A')
                 (A") (A') (A') (A') (A') (A') (A') (A') (A') (A')
                 (A') (A') (A") (A') (A") (A") (A') (A") (A')
       Virtual   (A") (A") (A') (A') (A') (A') (A") (A') (A') (A")
                 (A') (A") (A") (A') (A') (A') (A') (A') (A') (A")
                 (A') (A') (A") (A') (A') (A") (A') (A') (A') (A")
                 (A') (A') (A') (A') (A') (A') (A') (A') (A') (A')
                 (A') (A') (A') (A') (A') (A') (A') (A') (A") (A')
                 (A") (A') (A') (A') (A") (A') (A") (A") (A") (A')
                 (A') (A') (A") (A') (A') (A') (A') (A") (A') (A')
                 (A') (A') (A') (A') (A') (A") (A") (A') (A") (A')
                 (A') (A") (A') (A") (A") (A') (A') (A') (A") (A')
                 (A') (A') (A') (A') (A") (A") (A") (A') (A') (A')
                 (A') (A") (A') (A") (A') (A") (A') (A') (A") (A')
                 (A") (A') (A') (A") (A') (A") (A') (A") (A') (A')
                 (A') (A') (A') (A") (A') (A') (A') (A") (A') (A")
                 (A') (A') (A') (A') (A") (A") (A') (A") (A') (A')
                 (A') (A') (A') (A') (A') (A') (A') (A') (A') (A')
                 (A') (A') (A') (A') (A') (A') (A') (A") (A') (A')
                 (A')
 The electronic state of the initial guess is 1-A'.
 Keep R1 ints in memory in symmetry-blocked form, NReq=252081161.
 Requested convergence on RMS density matrix=1.00D-08 within 128 cycles.
 Requested convergence on MAX density matrix=1.00D-06.
 Requested convergence on             energy=1.00D-06.
 No special actions if energy rises.
 SCF Done:  E(RM062X) =  -691.161694786     A.U. after   20 cycles
            NFock= 20  Conv=0.46D-08     -V/T= 2.0027

 **********************************************************************

            Population analysis using the SCF Density.

 **********************************************************************

 Orbital symmetries:
       Occupied  (A') (A') (A') (A') (A') (A') (A') (A') (A') (A")
                 (A') (A') (A') (A') (A') (A') (A') (A') (A') (A')
                 (A') (A") (A') (A") (A') (A') (A") (A") (A')
       Virtual   (A') (A') (A') (A') (A') (A") (A") (A') (A") (A')
                 (A') (A") (A') (A") (A') (A') (A") (A') (A') (A')
                 (A') (A") (A") (A') (A") (A') (A') (A') (A') (A')
                 (A') (A') (A') (A') (A") (A') (A') (A') (A') (A')
                 (A') (A') (A') (A') (A") (A') (A') (A') (A') (A")
                 (A') (A') (A") (A') (A") (A') (A') (A") (A") (A')
                 (A') (A") (A') (A') (A') (A') (A') (A') (A') (A")
                 (A') (A') (A") (A') (A') (A') (A') (A') (A') (A')
                 (A") (A") (A") (A') (A") (A') (A") (A') (A") (A')
                 (A') (A') (A') (A") (A') (A") (A') (A") (A') (A')
                 (A") (A') (A') (A') (A") (A') (A") (A') (A") (A')
                 (A") (A') (A') (A") (A') (A") (A") (A') (A') (A')
                 (A') (A') (A') (A') (A') (A") (A') (A') (A') (A')
                 (A') (A") (A") (A') (A") (A") (A') (A") (A') (A')
                 (A') (A') (A') (A') (A') (A') (A') (A') (A') (A')
                 (A') (A') (A') (A') (A') (A') (A') (A") (A') (A')
                 (A')
 The electronic state is 1-A'.
 Alpha  occ. eigenvalues -- -102.52694 -10.43659 -10.38547 -10.38198 -10.36288
 Alpha  occ. eigenvalues --  -10.35702 -10.30515  -9.66994  -7.39460  -7.38869
 Alpha  occ. eigenvalues --   -7.38866  -0.82866  -0.75886  -0.65843  -0.64308
 Alpha  occ. eigenvalues --   -0.51089  -0.48497  -0.41699  -0.35391  -0.34582
 Alpha  occ. eigenvalues --   -0.32493  -0.29973  -0.28204  -0.23466  -0.23402
 Alpha  occ. eigenvalues --   -0.23086  -0.13189  -0.11639  -0.03088
 Alpha virt. eigenvalues --    0.10249   0.11620   0.12565   0.13330   0.15128
 Alpha virt. eigenvalues --    0.17157   0.18538   0.19439   0.20079   0.20388
 Alpha virt. eigenvalues --    0.21295   0.21517   0.23389   0.23646   0.24095
 Alpha virt. eigenvalues --    0.24890   0.25741   0.26150   0.26705   0.27189
 Alpha virt. eigenvalues --    0.27540   0.27607   0.28774   0.28937   0.29382
 Alpha virt. eigenvalues --    0.30488   0.31221   0.31398   0.34573   0.34917
 Alpha virt. eigenvalues --    0.35729   0.36473   0.38776   0.39364   0.39769
 Alpha virt. eigenvalues --    0.40345   0.41772   0.44684   0.45678   0.46391
 Alpha virt. eigenvalues --    0.50511   0.52715   0.53866   0.54581   0.61798
 Alpha virt. eigenvalues --    0.61852   0.63566   0.67944   0.69327   0.73093
 Alpha virt. eigenvalues --    0.73471   0.74584   0.77299   0.77363   0.77828
 Alpha virt. eigenvalues --    0.79624   0.81016   0.81589   0.82338   0.85649
 Alpha virt. eigenvalues --    0.88337   0.89406   0.90526   0.93258   0.95530
 Alpha virt. eigenvalues --    0.97964   0.99065   1.03085   1.04081   1.04378
 Alpha virt. eigenvalues --    1.04433   1.06353   1.08114   1.08901   1.10209
 Alpha virt. eigenvalues --    1.12149   1.14364   1.16070   1.17736   1.22957
 Alpha virt. eigenvalues --    1.23106   1.24101   1.32761   1.35147   1.35478
 Alpha virt. eigenvalues --    1.38756   1.42916   1.43242   1.53394   1.59419
 Alpha virt. eigenvalues --    1.69747   1.72535   1.74603   1.77359   1.77481
 Alpha virt. eigenvalues --    1.82768   1.86244   1.87204   1.88742   1.90157
 Alpha virt. eigenvalues --    1.95245   1.98022   2.07149   2.10348   2.12569
 Alpha virt. eigenvalues --    2.14140   2.14651   2.15416   2.18367   2.21705
 Alpha virt. eigenvalues --    2.23492   2.24025   2.26714   2.41085   2.43131
 Alpha virt. eigenvalues --    2.48134   2.54261   2.56455   2.60713   2.65153
 Alpha virt. eigenvalues --    2.70637   2.71714   2.72636   2.75598   2.86288
 Alpha virt. eigenvalues --    2.89038   2.89121   2.90818   2.92428   2.94136
 Alpha virt. eigenvalues --    2.98766   3.02243   3.02770   3.06392   3.12171
 Alpha virt. eigenvalues --    3.13405   3.30527   3.31326   3.36261   3.42807
 Alpha virt. eigenvalues --    3.56668   3.60134   3.70785   3.80168   3.92117
 Alpha virt. eigenvalues --    4.03938   4.22840   4.31742   4.35880   5.01726
 Alpha virt. eigenvalues --   10.11358  23.76331  24.14405  24.20142  24.30291
 Alpha virt. eigenvalues --   24.32736  24.40484  26.07939  26.37088  26.87033
 Alpha virt. eigenvalues --  216.21465
          Condensed to atoms (all electrons):
               1          2          3          4          5          6
     1  C   13.758401   0.857935   0.202230  -0.966809  -5.334646  -1.651089
     2  C    0.857935   7.304208  -0.616989   0.886928  -3.351655   0.005042
     3  C    0.202230  -0.616989   7.541033  -0.751314   2.637341  -2.103556
     4  C   -0.966809   0.886928  -0.751314   7.100072  -1.235023   0.420503
     5  C   -5.334646  -3.351655   2.637341  -1.235023  18.473789  -4.659192
     6  C   -1.651089   0.005042  -2.103556   0.420503  -4.659192  14.383080
     7  Cl  -0.202528   0.358606  -0.110926   0.262337   0.092924  -1.038747
     8  H   -0.143090  -0.070440   0.101118  -0.057388   0.745885  -0.267451
     9  H   -0.039941   0.059076   0.331523  -0.098945   0.024320   0.009681
    10  H    0.029981   0.225140  -0.302336   0.419905  -0.389713   0.163571
    11  H    0.537322   0.183416  -0.111028   0.073675  -0.204627  -0.263261
               7          8          9         10         11
     1  C   -0.202528  -0.143090  -0.039941   0.029981   0.537322
     2  C    0.358606  -0.070440   0.059076   0.225140   0.183416
     3  C   -0.110926   0.101118   0.331523  -0.302336  -0.111028
     4  C    0.262337  -0.057388  -0.098945   0.419905   0.073675
     5  C    0.092924   0.745885   0.024320  -0.389713  -0.204627
     6  C   -1.038747  -0.267451   0.009681   0.163571  -0.263261
     7  Cl  17.487299   0.013287  -0.001419   0.007530   0.032521
     8  H    0.013287   0.589946   0.002293  -0.033813  -0.005869
     9  H   -0.001419   0.002293   0.620927   0.000214  -0.005401
    10  H    0.007530  -0.033813   0.000214   0.751885   0.006875
    11  H    0.032521  -0.005869  -0.005401   0.006875   0.641387
 Mulliken charges:
               1
     1  C   -1.047767
     2  C    0.158734
     3  C   -0.817095
     4  C   -0.053942
     5  C   -0.799404
     6  C    1.001418
     7  Cl   0.099115
     8  H    0.125521
     9  H    0.097671
    10  H    0.120761
    11  H    0.114988
 Sum of Mulliken charges =  -1.00000
 Mulliken charges with hydrogens summed into heavy atoms:
               1
     1  C   -0.932779
     2  C    0.158734
     3  C   -0.719424
     4  C    0.066818
     5  C   -0.673883
     6  C    1.001418
     7  Cl   0.099115
 Electronic spatial extent (au):  <R**2>=            912.1657
 Charge=             -1.0000 electrons
 Dipole moment (field-independent basis, Debye):
    X=             -4.7514    Y=              3.6181    Z=              0.0000  Tot=              5.9721
 Quadrupole moment (field-independent basis, Debye-Ang):
   XX=            -64.2901   YY=            -68.9859   ZZ=            -55.9101
   XY=             10.6321   XZ=             -0.0000   YZ=              0.0000
 Traceless Quadrupole moment (field-independent basis, Debye-Ang):
   XX=             -1.2281   YY=             -5.9239   ZZ=              7.1519
   XY=             10.6321   XZ=             -0.0000   YZ=              0.0000
 Octapole moment (field-independent basis, Debye-Ang**2):
  XXX=            -39.2479  YYY=             31.6875  ZZZ=              0.0000  XYY=            -22.3263
  XXY=             33.5989  XXZ=             -0.0000  XZZ=             -4.0317  YZZ=             12.0589
  YYZ=             -0.0000  XYZ=              0.0000
 Hexadecapole moment (field-independent basis, Debye-Ang**3):
 XXXX=           -434.2233 YYYY=           -994.5778 ZZZZ=            -77.2700 XXXY=             90.1901
 XXXZ=             -0.0000 YYYX=             68.0628 YYYZ=              0.0000 ZZZX=             -0.0000
 ZZZY=              0.0000 XXYY=           -273.5752 XXZZ=            -84.0327 YYZZ=           -184.1472
 XXYZ=              0.0000 YYXZ=             -0.0000 ZZXY=             11.5613
 N-N= 3.028996536352D+02 E-N=-2.246101577932D+03  KE= 6.893204452166D+02
 Symmetry A'   KE= 6.373166223443D+02
 Symmetry A"   KE= 5.200382287232D+01
 Calling FoFJK, ICntrl=      2127 FMM=F ISym2X=1 I1Cent= 0 IOpClX= 0 NMat=1 NMatS=1 NMatT=0.
 ***** Axes restored to original set *****
 -------------------------------------------------------------------
 Center     Atomic                   Forces (Hartrees/Bohr)
 Number     Number              X              Y              Z
 -------------------------------------------------------------------
      1        6           0.011231461   -0.017179383   -0.000000000
      2        6           0.001326093    0.035580190    0.000000000
      3        6          -0.019417208   -0.018208782   -0.000000000
      4        6          -0.002134377    0.007236966    0.000000000
      5        6          -0.004198454   -0.004966260   -0.000000000
      6        6           0.022492688    0.015866187    0.000000000
      7       17          -0.009835087   -0.009027022   -0.000000000
      8        1          -0.001813759   -0.001548812   -0.000000000
      9        1           0.006107316    0.000209139    0.000000000
     10        1           0.002930201   -0.006508795   -0.000000000
     11        1          -0.006688874   -0.001453426   -0.000000000
 -------------------------------------------------------------------
 Cartesian Forces:  Max     0.035580190 RMS     0.010406149

 GradGradGradGradGradGradGradGradGradGradGradGradGradGradGradGradGradGrad
 Berny optimization.
 FormGI is forming the generalized inverse of G from B-inverse, IUseBI=4.
 Internal  Forces:  Max     0.027427346 RMS     0.006955479
 Search for a local minimum.
 Step number   1 out of a maximum of   57
 All quantities printed in internal units (Hartrees-Bohrs-Radians)
 Mixed Optimization -- RFO/linear search
 Second derivative matrix not updated -- first step.
 ITU=  0
     Eigenvalues ---    0.02084   0.02088   0.02092   0.02096   0.02101
     Eigenvalues ---    0.02102   0.02109   0.02113   0.16000   0.16000
     Eigenvalues ---    0.16000   0.16000   0.22000   0.23190   0.23484
     Eigenvalues ---    0.25000   0.30095   0.35687   0.35713   0.35755
     Eigenvalues ---    0.35780   0.41678   0.42312   0.45612   0.45722
     Eigenvalues ---    0.45848   0.45939
 RFO step:  Lambda=-8.52287930D-03 EMin= 2.08428120D-02
 Linear search not attempted -- first point.
 Iteration  1 RMS(Cart)=  0.03166247 RMS(Int)=  0.00094671
 Iteration  2 RMS(Cart)=  0.00130178 RMS(Int)=  0.00021273
 Iteration  3 RMS(Cart)=  0.00000015 RMS(Int)=  0.00021273
 ClnCor:  largest displacement from symmetrization is 8.34D-09 for atom     2.
 Variable       Old X    -DE/DX   Delta X   Delta X   Delta X     New X
                                 (Linear)    (Quad)   (Total)
    R1        2.64178   0.00662   0.00000   0.01469   0.01497   2.65675
    R2        2.64613  -0.00299   0.00000  -0.00667  -0.00664   2.63949
    R3        2.04467   0.00489   0.00000   0.01336   0.01336   2.05803
    R4        2.64140   0.00867   0.00000   0.01927   0.01953   2.66092
    R5        2.64335   0.00174   0.00000   0.00394   0.00392   2.64727
    R6        2.04427   0.00546   0.00000   0.01492   0.01492   2.05919
    R7        2.64399  -0.00778   0.00000  -0.01724  -0.01753   2.62646
    R8        2.04533   0.00591   0.00000   0.01616   0.01616   2.06149
    R9        2.64638  -0.01198   0.00000  -0.02658  -0.02684   2.61954
   R10        2.04574   0.00159   0.00000   0.00436   0.00436   2.05010
   R11        3.31475   0.01294   0.00000   0.04182   0.04182   3.35657
    A1        2.09470   0.00974   0.00000   0.04168   0.04197   2.13667
    A2        2.08668   0.00002   0.00000   0.00817   0.00803   2.09471
    A3        2.10181  -0.00976   0.00000  -0.04985  -0.04999   2.05181
    A4        2.09578  -0.02743   0.00000  -0.10462  -0.10379   1.99199
    A5        2.09444   0.01567   0.00000   0.06901   0.06921   2.16365
    A6        2.09117  -0.00503   0.00000  -0.01786  -0.01796   2.07321
    A7        2.09757  -0.01064   0.00000  -0.05115  -0.05124   2.04633
    A8        2.09450   0.00056   0.00000   0.00017  -0.00021   2.09429
    A9        2.09426   0.00382   0.00000   0.02427   0.02446   2.11873
   A10        2.09442  -0.00439   0.00000  -0.02444  -0.02425   2.07017
   A11        2.09453  -0.00845   0.00000  -0.04132  -0.04195   2.05257
   A12        2.08998   0.00605   0.00000   0.03148   0.03180   2.12178
   A13        2.09867   0.00240   0.00000   0.00984   0.01016   2.10883
   A14        2.09242   0.00990   0.00000   0.03508   0.03478   2.12720
   A15        2.09533   0.00047   0.00000   0.00342   0.00356   2.09889
   A16        2.09543  -0.01037   0.00000  -0.03849  -0.03834   2.05709
    D1        0.00000  -0.00000   0.00000  -0.00000  -0.00000   0.00000
    D2        3.14159  -0.00000   0.00000  -0.00000   0.00000   3.14159
    D3       -0.00000  -0.00000   0.00000   0.00000   0.00000   0.00000
    D4        3.14159   0.00000   0.00000  -0.00000   0.00000   3.14159
    D5        3.14159  -0.00000   0.00000   0.00000   0.00000   3.14159
    D6        0.00000   0.00000   0.00000   0.00000  -0.00000   0.00000
    D7       -0.00000  -0.00000   0.00000  -0.00000   0.00000   0.00000
    D8        3.14159  -0.00000   0.00000   0.00000   0.00000   3.14159
    D9       -0.00000  -0.00000   0.00000   0.00000   0.00000   0.00000
   D10        3.14159  -0.00000   0.00000   0.00000   0.00000   3.14159
   D11        3.14159  -0.00000   0.00000  -0.00000   0.00000   3.14159
   D12        0.00000  -0.00000   0.00000   0.00000   0.00000   0.00000
   D13        0.00000   0.00000   0.00000  -0.00000  -0.00000   0.00000
   D14        3.14159   0.00000   0.00000  -0.00000   0.00000   3.14159
   D15        3.14159   0.00000   0.00000  -0.00000   0.00000   3.14159
   D16       -0.00000   0.00000   0.00000  -0.00000   0.00000   0.00000
   D17        0.00000  -0.00000   0.00000  -0.00000   0.00000   0.00000
   D18        3.14159  -0.00000   0.00000   0.00000   0.00000   3.14159
   D19        3.14159   0.00000   0.00000   0.00000   0.00000   3.14159
   D20       -0.00000  -0.00000   0.00000   0.00000   0.00000   0.00000
         Item               Value     Threshold  Converged?
 Maximum Force            0.027427     0.000450     NO 
 RMS     Force            0.006955     0.000300     NO 
 Maximum Displacement     0.141962     0.001800     NO 
 RMS     Displacement     0.031826     0.001200     NO 
 Predicted change in Energy=-4.402607D-03
 GradGradGradGradGradGradGradGradGradGradGradGradGradGradGradGradGradGrad

                          Input orientation:                          
 ---------------------------------------------------------------------
 Center     Atomic      Atomic             Coordinates (Angstroms)
 Number     Number       Type             X           Y           Z
 ---------------------------------------------------------------------
      1          6           0       -1.150258    1.222499    0.000000
      2          6           0        0.054169    1.947684    0.000000
      3          6           0        1.210214    1.143752    0.000000
      4          6           0        1.189492   -0.256972    0.000000
      5          6           0       -0.024385   -0.933896   -0.000000
      6          6           0       -1.183649   -0.173858   -0.000000
      7         17           0       -2.738846   -1.031945   -0.000000
      8          1           0       -0.070241   -2.017791   -0.000000
      9          1           0        2.186263    1.628232    0.000000
     10          1           0        2.112174   -0.838953    0.000000
     11          1           0       -2.103417    1.749325    0.000000
 ---------------------------------------------------------------------
                    Distance matrix (angstroms):
                    1          2          3          4          5
     1  C    0.000000
     2  C    1.405893   0.000000
     3  C    2.361785   1.408101   0.000000
     4  C    2.768260   2.479812   1.400877   0.000000
     5  C    2.432618   2.882651   2.416787   1.389865   0.000000
     6  C    1.396756   2.456244   2.732522   2.374595   1.386200
     7  Cl   2.757922   4.084008   4.508739   4.004050   2.716231
     8  H    3.415541   3.967427   3.411000   2.165043   1.084864
     9  H    3.361099   2.155893   1.089676   2.132498   3.384002
    10  H    3.859151   3.464207   2.178222   1.090891   2.138667
    11  H    1.089063   2.166685   3.368511   3.855966   3.394414
                    6          7          8          9         10
     6  C    0.000000
     7  Cl   1.776218   0.000000
     8  H    2.154012   2.844880   0.000000
     9  H    3.821496   5.597610   4.287808   0.000000
    10  H    3.362261   4.854857   2.480442   2.468298   0.000000
    11  H    2.131808   2.852934   4.280767   4.291389   4.946755
                   11
    11  H    0.000000
 Stoichiometry    C6H4Cl(1-)
 Framework group  CS[SG(C6H4Cl)]
 Deg. of freedom    19
 Full point group                 CS      NOp   2
 Largest Abelian subgroup         CS      NOp   2
 Largest concise Abelian subgroup C1      NOp   1
                         Standard orientation:                         
 ---------------------------------------------------------------------
 Center     Atomic      Atomic             Coordinates (Angstroms)
 Number     Number       Type             X           Y           Z
 ---------------------------------------------------------------------
      1          6           0        1.260510   -0.147848    0.000000
      2          6           0        1.429524   -1.543545    0.000000
      3          6           0        0.223017   -2.269553    0.000000
      4          6           0       -1.046660   -1.677627    0.000000
      5          6           0       -1.167771   -0.293050    0.000000
      6          6           0        0.000000    0.453852    0.000000
      7         17           0       -0.146791    2.223995    0.000000
      8          1           0       -2.138061    0.192201    0.000000
      9          1           0        0.265814   -3.358388    0.000000
     10          1           0       -1.955173   -2.281490    0.000000
     11          1           0        2.131160    0.506389    0.000000
 ---------------------------------------------------------------------
 Rotational constants (GHZ):           5.8556035           1.5863015           1.2481687
 Standard basis: 6-311++G(d,p) (5D, 7F)
 There are   149 symmetry adapted cartesian basis functions of A'  symmetry.
 There are    48 symmetry adapted cartesian basis functions of A"  symmetry.
 There are   142 symmetry adapted basis functions of A'  symmetry.
 There are    48 symmetry adapted basis functions of A"  symmetry.
   190 basis functions,   305 primitive gaussians,   197 cartesian basis functions
    29 alpha electrons       29 beta electrons
       nuclear repulsion energy       302.8745030112 Hartrees.
 NAtoms=   11 NActive=   11 NUniq=   11 SFac= 1.00D+00 NAtFMM=   60 NAOKFM=F Big=F
 Integral buffers will be    131072 words long.
 Raffenetti 2 integral format.
 Two-electron integral symmetry is turned on.
 One-electron integrals computed using PRISM.
 NBasis=   190 RedAO= T EigKep=  2.16D-06  NBF=   142    48
 NBsUse=   190 1.00D-06 EigRej= -1.00D+00 NBFU=   142    48
 Initial guess from the checkpoint file:  "frequency_chks/13dichlorobenzene_anion_product_Freq.chk"
 B after Tr=     0.000000    0.000000   -0.000000
         Rot=    1.000000   -0.000000   -0.000000   -0.000165 Ang=  -0.02 deg.
 Initial guess orbital symmetries:
       Occupied  (A') (A') (A') (A') (A') (A') (A') (A') (A') (A")
                 (A') (A') (A') (A') (A') (A') (A') (A') (A') (A')
                 (A') (A") (A') (A") (A') (A') (A") (A") (A')
       Virtual   (A') (A') (A') (A') (A') (A") (A") (A') (A") (A')
                 (A') (A") (A') (A") (A') (A') (A") (A') (A') (A')
                 (A') (A") (A") (A') (A") (A') (A') (A') (A') (A')
                 (A') (A') (A') (A') (A") (A') (A') (A') (A') (A')
                 (A') (A') (A') (A') (A") (A') (A') (A') (A') (A")
                 (A') (A') (A") (A') (A") (A') (A') (A") (A") (A')
                 (A') (A") (A') (A') (A') (A') (A') (A') (A') (A")
                 (A') (A') (A") (A') (A') (A') (A') (A') (A') (A')
                 (A") (A") (A") (A') (A") (A') (A") (A') (A") (A')
                 (A') (A') (A') (A") (A') (A") (A') (A") (A') (A')
                 (A") (A') (A') (A') (A") (A') (A") (A') (A") (A')
                 (A") (A') (A') (A") (A') (A") (A") (A') (A') (A')
                 (A') (A') (A') (A') (A') (A") (A') (A') (A') (A')
                 (A') (A") (A") (A') (A") (A") (A') (A") (A') (A')
                 (A') (A') (A') (A') (A') (A') (A') (A') (A') (A')
                 (A') (A') (A') (A') (A') (A') (A') (A") (A') (A')
                 (A')
 ExpMin= 3.60D-02 ExpMax= 1.06D+05 ExpMxC= 3.62D+03 IAcc=3 IRadAn=         5 AccDes= 0.00D+00
 Harris functional with IExCor= 1009 and IRadAn=       5 diagonalized for initial guess.
 HarFok:  IExCor= 1009 AccDes= 0.00D+00 IRadAn=         5 IDoV= 1 UseB2=F ITyADJ=14
 ICtDFT=  3500011 ScaDFX=  1.000000  1.000000  1.000000  1.000000
 FoFCou: FMM=F IPFlag=           0 FMFlag=      100000 FMFlg1=           0
         NFxFlg=           0 DoJE=T BraDBF=F KetDBF=T FulRan=T
         wScrn=  0.000000 ICntrl=       500 IOpCl=  0 I1Cent=   200000004 NGrid=           0
         NMat0=    1 NMatS0=      1 NMatT0=    0 NMatD0=    1 NMtDS0=    0 NMtDT0=    0
 Petite list used in FoFCou.
 Keep R1 ints in memory in symmetry-blocked form, NReq=252081161.
 Requested convergence on RMS density matrix=1.00D-08 within 128 cycles.
 Requested convergence on MAX density matrix=1.00D-06.
 Requested convergence on             energy=1.00D-06.
 No special actions if energy rises.
 SCF Done:  E(RM062X) =  -691.166789941     A.U. after   15 cycles
            NFock= 15  Conv=0.47D-08     -V/T= 2.0027
 Calling FoFJK, ICntrl=      2127 FMM=F ISym2X=1 I1Cent= 0 IOpClX= 0 NMat=1 NMatS=1 NMatT=0.
 ***** Axes restored to original set *****
 -------------------------------------------------------------------
 Center     Atomic                   Forces (Hartrees/Bohr)
 Number     Number              X              Y              Z
 -------------------------------------------------------------------
      1        6          -0.002659194   -0.007450760   -0.000000000
      2        6           0.001823836    0.009793275   -0.000000000
      3        6          -0.001175655   -0.007191579   -0.000000000
      4        6           0.004486807    0.004823396   -0.000000000
      5        6          -0.002631146   -0.006570516   -0.000000000
      6        6           0.005819396    0.009012332   -0.000000000
      7       17          -0.005124864   -0.002636373   -0.000000000
      8        1          -0.000571859    0.000702830   -0.000000000
      9        1           0.001959028   -0.000407126   -0.000000000
     10        1          -0.000238326    0.000962884   -0.000000000
     11        1          -0.001688023   -0.001038364   -0.000000000
 -------------------------------------------------------------------
 Cartesian Forces:  Max     0.009793275 RMS     0.003759635

 GradGradGradGradGradGradGradGradGradGradGradGradGradGradGradGradGradGrad
 Berny optimization.
 Using GEDIIS/GDIIS optimizer.
 FormGI is forming the generalized inverse of G from B-inverse, IUseBI=4.
 Internal  Forces:  Max     0.006029878 RMS     0.002063169
 Search for a local minimum.
 Step number   2 out of a maximum of   57
 All quantities printed in internal units (Hartrees-Bohrs-Radians)
 Mixed Optimization -- RFO/linear search
 Update second derivatives using D2CorX and points    1    2
 DE= -5.10D-03 DEPred=-4.40D-03 R= 1.16D+00
 TightC=F SS=  1.41D+00  RLast= 1.84D-01 DXNew= 5.0454D-01 5.5082D-01
 Trust test= 1.16D+00 RLast= 1.84D-01 DXMaxT set to 5.05D-01
 ITU=  1  0
 Use linear search instead of GDIIS.
     Eigenvalues ---    0.02084   0.02088   0.02092   0.02096   0.02100
     Eigenvalues ---    0.02102   0.02109   0.02112   0.15029   0.16000
     Eigenvalues ---    0.16000   0.16219   0.19747   0.22033   0.23528
     Eigenvalues ---    0.25207   0.29489   0.35601   0.35695   0.35763
     Eigenvalues ---    0.35930   0.41087   0.41790   0.45639   0.45720
     Eigenvalues ---    0.45934   0.48838
 RFO step:  Lambda=-4.76340504D-04 EMin= 2.08430198D-02
 Quartic linear search produced a step of  0.22836.
 Iteration  1 RMS(Cart)=  0.01133502 RMS(Int)=  0.00012302
 Iteration  2 RMS(Cart)=  0.00015556 RMS(Int)=  0.00006250
 Iteration  3 RMS(Cart)=  0.00000000 RMS(Int)=  0.00006250
 ClnCor:  largest displacement from symmetrization is 2.46D-09 for atom     8.
 Variable       Old X    -DE/DX   Delta X   Delta X   Delta X     New X
                                 (Linear)    (Quad)   (Total)
    R1        2.65675   0.00603   0.00342   0.01348   0.01698   2.67374
    R2        2.63949  -0.00376  -0.00152  -0.00899  -0.01050   2.62898
    R3        2.05803   0.00098   0.00305   0.00093   0.00398   2.06201
    R4        2.66092   0.00483   0.00446   0.00952   0.01405   2.67497
    R5        2.64727  -0.00257   0.00090  -0.00750  -0.00661   2.64066
    R6        2.05919   0.00157   0.00341   0.00270   0.00610   2.06529
    R7        2.62646   0.00391  -0.00400   0.01357   0.00948   2.63594
    R8        2.06149  -0.00072   0.00369  -0.00538  -0.00169   2.05980
    R9        2.61954   0.00099  -0.00613   0.00735   0.00114   2.62068
   R10        2.05010  -0.00068   0.00099  -0.00312  -0.00212   2.04797
   R11        3.35657   0.00576   0.00955   0.01584   0.02539   3.38196
    A1        2.13667   0.00143   0.00958  -0.00017   0.00949   2.14616
    A2        2.09471   0.00106   0.00183   0.00812   0.00991   2.10461
    A3        2.05181  -0.00249  -0.01142  -0.00794  -0.01940   2.03241
    A4        1.99199  -0.00467  -0.02370  -0.00370  -0.02715   1.96483
    A5        2.16365   0.00271   0.01580   0.00232   0.01818   2.18183
    A6        2.07321  -0.00008  -0.00410   0.00539   0.00126   2.07447
    A7        2.04633  -0.00263  -0.01170  -0.00771  -0.01944   2.02689
    A8        2.09429   0.00036  -0.00005   0.00193   0.00177   2.09606
    A9        2.11873  -0.00089   0.00559  -0.01106  -0.00542   2.11331
   A10        2.07017   0.00053  -0.00554   0.00912   0.00364   2.07381
   A11        2.05257  -0.00239  -0.00958  -0.00595  -0.01572   2.03685
   A12        2.12178   0.00181   0.00726   0.00562   0.01297   2.13475
   A13        2.10883   0.00058   0.00232   0.00033   0.00275   2.11158
   A14        2.12720   0.00255   0.00794   0.00557   0.01343   2.14063
   A15        2.09889  -0.00156   0.00081  -0.00803  -0.00718   2.09172
   A16        2.05709  -0.00100  -0.00876   0.00246  -0.00625   2.05083
    D1        0.00000   0.00000   0.00000   0.00000   0.00000   0.00000
    D2        3.14159  -0.00000   0.00000  -0.00000   0.00000   3.14159
    D3        0.00000  -0.00000   0.00000  -0.00000   0.00000   0.00000
    D4        3.14159  -0.00000   0.00000  -0.00000   0.00000   3.14159
    D5        3.14159   0.00000   0.00000   0.00000   0.00000   3.14159
    D6        0.00000   0.00000   0.00000   0.00000   0.00000   0.00000
    D7        0.00000  -0.00000   0.00000  -0.00000   0.00000   0.00000
    D8        3.14159  -0.00000   0.00000  -0.00000   0.00000   3.14159
    D9        0.00000  -0.00000   0.00000   0.00000   0.00000   0.00000
   D10        3.14159  -0.00000   0.00000   0.00000   0.00000   3.14159
   D11        3.14159   0.00000   0.00000   0.00000   0.00000   3.14159
   D12        0.00000   0.00000   0.00000   0.00000   0.00000   0.00000
   D13        0.00000  -0.00000   0.00000  -0.00000   0.00000   0.00000
   D14        3.14159   0.00000   0.00000   0.00000   0.00000   3.14159
   D15        3.14159  -0.00000   0.00000  -0.00000   0.00000   3.14159
   D16        0.00000  -0.00000   0.00000   0.00000   0.00000   0.00000
   D17        0.00000   0.00000   0.00000   0.00000   0.00000   0.00000
   D18        3.14159   0.00000   0.00000   0.00000   0.00000   3.14159
   D19        3.14159  -0.00000   0.00000  -0.00000   0.00000   3.14159
   D20        0.00000   0.00000   0.00000   0.00000   0.00000   0.00000
         Item               Value     Threshold  Converged?
 Maximum Force            0.006030     0.000450     NO 
 RMS     Force            0.002063     0.000300     NO 
 Maximum Displacement     0.038422     0.001800     NO 
 RMS     Displacement     0.011348     0.001200     NO 
 Predicted change in Energy=-4.306785D-04
 GradGradGradGradGradGradGradGradGradGradGradGradGradGradGradGradGradGrad

                          Input orientation:                          
 ---------------------------------------------------------------------
 Center     Atomic      Atomic             Coordinates (Angstroms)
 Number     Number       Type             X           Y           Z
 ---------------------------------------------------------------------
      1          6           0       -1.146602    1.223024    0.000000
      2          6           0        0.056257    1.968016    0.000000
      3          6           0        1.206493    1.142972    0.000000
      4          6           0        1.190840   -0.254319    0.000000
      5          6           0       -0.023755   -0.940212    0.000000
      6          6           0       -1.175586   -0.167873    0.000000
      7         17           0       -2.746082   -1.026015    0.000000
      8          1           0       -0.077800   -2.022604    0.000000
      9          1           0        2.193012    1.613314    0.000000
     10          1           0        2.117964   -0.827497    0.000000
     11          1           0       -2.113225    1.729273    0.000000
 ---------------------------------------------------------------------
                    Distance matrix (angstroms):
                    1          2          3          4          5
     1  C    0.000000
     2  C    1.414880   0.000000
     3  C    2.354456   1.415535   0.000000
     4  C    2.765172   2.495206   1.397379   0.000000
     5  C    2.437288   2.909329   2.419332   1.394880   0.000000
     6  C    1.391199   2.465656   2.718937   2.368004   1.386803
     7  Cl   2.759802   4.100893   4.508586   4.011841   2.723679
     8  H    3.417080   3.992871   3.416179   2.176299   1.083740
     9  H    3.362343   2.165995   1.092905   2.119529   3.381502
    10  H    3.855130   3.473547   2.171066   1.089997   2.144683
    11  H    1.091169   2.182579   3.371094   3.853762   3.389990
                    6          7          8          9         10
     6  C    0.000000
     7  Cl   1.789655   0.000000
     8  H    2.155264   2.848318   0.000000
     9  H    3.810523   5.600063   4.286781   0.000000
    10  H    3.358955   4.868096   2.499933   2.441965   0.000000
    11  H    2.116206   2.827034   4.268435   4.307798   4.943687
                   11
    11  H    0.000000
 Stoichiometry    C6H4Cl(1-)
 Framework group  CS[SG(C6H4Cl)]
 Deg. of freedom    19
 Full point group                 CS      NOp   2
 Largest Abelian subgroup         CS      NOp   2
 Largest concise Abelian subgroup C1      NOp   1
                         Standard orientation:                         
 ---------------------------------------------------------------------
 Center     Atomic      Atomic             Coordinates (Angstroms)
 Number     Number       Type             X           Y           Z
 ---------------------------------------------------------------------
      1          6           0        1.255250   -0.155170    0.000000
      2          6           0        1.438099   -1.558185    0.000000
      3          6           0        0.212234   -2.265994    0.000000
      4          6           0       -1.054338   -1.675687    0.000000
      5          6           0       -1.178505   -0.286345    0.000000
      6          6           0        0.000000    0.444647    0.000000
      7         17           0       -0.134373    2.229250    0.000000
      8          1           0       -2.142356    0.209120    0.000000
      9          1           0        0.234046   -3.358682    0.000000
     10          1           0       -1.958757   -2.284062    0.000000
     11          1           0        2.114977    0.516782    0.000000
 ---------------------------------------------------------------------
 Rotational constants (GHZ):           5.8199350           1.5819505           1.2438519
 Standard basis: 6-311++G(d,p) (5D, 7F)
 There are   149 symmetry adapted cartesian basis functions of A'  symmetry.
 There are    48 symmetry adapted cartesian basis functions of A"  symmetry.
 There are   142 symmetry adapted basis functions of A'  symmetry.
 There are    48 symmetry adapted basis functions of A"  symmetry.
   190 basis functions,   305 primitive gaussians,   197 cartesian basis functions
    29 alpha electrons       29 beta electrons
       nuclear repulsion energy       302.3057022966 Hartrees.
 NAtoms=   11 NActive=   11 NUniq=   11 SFac= 1.00D+00 NAtFMM=   60 NAOKFM=F Big=F
 Integral buffers will be    131072 words long.
 Raffenetti 2 integral format.
 Two-electron integral symmetry is turned on.
 One-electron integrals computed using PRISM.
 NBasis=   190 RedAO= T EigKep=  2.24D-06  NBF=   142    48
 NBsUse=   190 1.00D-06 EigRej= -1.00D+00 NBFU=   142    48
 Initial guess from the checkpoint file:  "frequency_chks/13dichlorobenzene_anion_product_Freq.chk"
 B after Tr=    -0.000000    0.000000    0.000000
         Rot=    0.999997    0.000000    0.000000    0.002324 Ang=   0.27 deg.
 Initial guess orbital symmetries:
       Occupied  (A') (A') (A') (A') (A') (A') (A') (A') (A') (A')
                 (A") (A') (A') (A') (A') (A') (A') (A') (A') (A')
                 (A') (A") (A') (A") (A') (A') (A") (A") (A')
       Virtual   (A') (A') (A') (A') (A') (A") (A") (A') (A") (A')
                 (A') (A") (A') (A") (A') (A') (A") (A') (A') (A')
                 (A') (A") (A') (A") (A") (A') (A') (A') (A') (A')
                 (A') (A') (A') (A') (A") (A') (A') (A') (A') (A')
                 (A') (A') (A') (A') (A') (A") (A') (A') (A') (A")
                 (A') (A') (A") (A') (A") (A') (A') (A") (A") (A')
                 (A') (A") (A') (A') (A') (A') (A') (A') (A') (A')
                 (A") (A') (A") (A') (A') (A') (A') (A') (A') (A")
                 (A') (A") (A") (A') (A") (A') (A") (A') (A") (A')
                 (A') (A') (A') (A") (A') (A") (A') (A") (A') (A')
                 (A") (A') (A') (A') (A") (A") (A') (A') (A") (A')
                 (A") (A') (A') (A") (A') (A") (A") (A') (A') (A')
                 (A') (A') (A') (A') (A') (A') (A") (A') (A') (A')
                 (A') (A") (A") (A') (A") (A") (A") (A') (A') (A')
                 (A') (A') (A') (A') (A') (A') (A') (A') (A') (A')
                 (A') (A') (A') (A') (A') (A') (A') (A") (A') (A')
                 (A')
 ExpMin= 3.60D-02 ExpMax= 1.06D+05 ExpMxC= 3.62D+03 IAcc=3 IRadAn=         5 AccDes= 0.00D+00
 Harris functional with IExCor= 1009 and IRadAn=       5 diagonalized for initial guess.
 HarFok:  IExCor= 1009 AccDes= 0.00D+00 IRadAn=         5 IDoV= 1 UseB2=F ITyADJ=14
 ICtDFT=  3500011 ScaDFX=  1.000000  1.000000  1.000000  1.000000
 FoFCou: FMM=F IPFlag=           0 FMFlag=      100000 FMFlg1=           0
         NFxFlg=           0 DoJE=T BraDBF=F KetDBF=T FulRan=T
         wScrn=  0.000000 ICntrl=       500 IOpCl=  0 I1Cent=   200000004 NGrid=           0
         NMat0=    1 NMatS0=      1 NMatT0=    0 NMatD0=    1 NMtDS0=    0 NMtDT0=    0
 Petite list used in FoFCou.
 Keep R1 ints in memory in symmetry-blocked form, NReq=252081161.
 Requested convergence on RMS density matrix=1.00D-08 within 128 cycles.
 Requested convergence on MAX density matrix=1.00D-06.
 Requested convergence on             energy=1.00D-06.
 No special actions if energy rises.
 SCF Done:  E(RM062X) =  -691.167245076     A.U. after   14 cycles
            NFock= 14  Conv=0.66D-08     -V/T= 2.0028
 Calling FoFJK, ICntrl=      2127 FMM=F ISym2X=1 I1Cent= 0 IOpClX= 0 NMat=1 NMatS=1 NMatT=0.
 ***** Axes restored to original set *****
 -------------------------------------------------------------------
 Center     Atomic                   Forces (Hartrees/Bohr)
 Number     Number              X              Y              Z
 -------------------------------------------------------------------
      1        6          -0.002015848   -0.000482587   -0.000000000
      2        6           0.000353522    0.000004092   -0.000000000
      3        6           0.000682936   -0.000455866   -0.000000000
      4        6          -0.000294927    0.000199356   -0.000000000
      5        6          -0.000437305   -0.001496845   -0.000000000
      6        6           0.003010873    0.001761731   -0.000000000
      7       17          -0.001472365   -0.000663537   -0.000000000
      8        1           0.000020199    0.000304016   -0.000000000
      9        1          -0.000235978    0.000120341   -0.000000000
     10        1          -0.000076747    0.000508392   -0.000000000
     11        1           0.000465639    0.000200907   -0.000000000
 -------------------------------------------------------------------
 Cartesian Forces:  Max     0.003010873 RMS     0.000836949

 GradGradGradGradGradGradGradGradGradGradGradGradGradGradGradGradGradGrad
 Berny optimization.
 Using GEDIIS/GDIIS optimizer.
 FormGI is forming the generalized inverse of G from B-inverse, IUseBI=4.
 Internal  Forces:  Max     0.001610357 RMS     0.000382612
 Search for a local minimum.
 Step number   3 out of a maximum of   57
 All quantities printed in internal units (Hartrees-Bohrs-Radians)
 Mixed Optimization -- En-DIIS/RFO-DIIS
 Update second derivatives using D2CorX and points    1    2    3
 DE= -4.55D-04 DEPred=-4.31D-04 R= 1.06D+00
 TightC=F SS=  1.41D+00  RLast= 6.47D-02 DXNew= 8.4853D-01 1.9414D-01
 Trust test= 1.06D+00 RLast= 6.47D-02 DXMaxT set to 5.05D-01
 ITU=  1  1  0
 Use linear search instead of GDIIS.
     Eigenvalues ---    0.02084   0.02088   0.02092   0.02096   0.02100
     Eigenvalues ---    0.02102   0.02109   0.02112   0.15112   0.16000
     Eigenvalues ---    0.16018   0.16420   0.18082   0.22078   0.24336
     Eigenvalues ---    0.25403   0.28881   0.35668   0.35761   0.35782
     Eigenvalues ---    0.36093   0.41114   0.41956   0.45641   0.45709
     Eigenvalues ---    0.45934   0.48440
 RFO step:  Lambda=-2.61924391D-05 EMin= 2.08430142D-02
 Quartic linear search produced a step of  0.08154.
 Iteration  1 RMS(Cart)=  0.00156656 RMS(Int)=  0.00000264
 Iteration  2 RMS(Cart)=  0.00000341 RMS(Int)=  0.00000095
 Iteration  3 RMS(Cart)=  0.00000000 RMS(Int)=  0.00000095
 ClnCor:  largest displacement from symmetrization is 3.23D-10 for atom     8.
 Variable       Old X    -DE/DX   Delta X   Delta X   Delta X     New X
                                 (Linear)    (Quad)   (Total)
    R1        2.67374   0.00032   0.00138   0.00005   0.00144   2.67517
    R2        2.62898  -0.00037  -0.00086  -0.00037  -0.00122   2.62776
    R3        2.06201  -0.00032   0.00032  -0.00103  -0.00071   2.06130
    R4        2.67497   0.00009   0.00115  -0.00034   0.00081   2.67578
    R5        2.64066  -0.00026  -0.00054  -0.00029  -0.00082   2.63984
    R6        2.06529  -0.00016   0.00050  -0.00065  -0.00016   2.06514
    R7        2.63594   0.00023   0.00077  -0.00012   0.00065   2.63659
    R8        2.05980  -0.00033  -0.00014  -0.00077  -0.00090   2.05889
    R9        2.62068   0.00008   0.00009  -0.00009   0.00000   2.62068
   R10        2.04797  -0.00030  -0.00017  -0.00077  -0.00094   2.04703
   R11        3.38196   0.00161   0.00207   0.00485   0.00692   3.38887
    A1        2.14616  -0.00064   0.00077  -0.00303  -0.00226   2.14390
    A2        2.10461  -0.00008   0.00081  -0.00167  -0.00086   2.10375
    A3        2.03241   0.00073  -0.00158   0.00471   0.00312   2.03553
    A4        1.96483   0.00017  -0.00221   0.00123  -0.00098   1.96385
    A5        2.18183  -0.00001   0.00148  -0.00035   0.00114   2.18296
    A6        2.07447  -0.00022   0.00010  -0.00166  -0.00156   2.07291
    A7        2.02689   0.00022  -0.00158   0.00201   0.00043   2.02731
    A8        2.09606   0.00025   0.00014   0.00115   0.00129   2.09736
    A9        2.11331  -0.00053  -0.00044  -0.00285  -0.00329   2.11002
   A10        2.07381   0.00028   0.00030   0.00170   0.00200   2.07581
   A11        2.03685  -0.00069  -0.00128  -0.00281  -0.00410   2.03275
   A12        2.13475   0.00034   0.00106   0.00120   0.00226   2.13701
   A13        2.11158   0.00035   0.00022   0.00161   0.00184   2.11342
   A14        2.14063   0.00092   0.00110   0.00381   0.00491   2.14554
   A15        2.09172  -0.00067  -0.00059  -0.00258  -0.00316   2.08855
   A16        2.05083  -0.00026  -0.00051  -0.00124  -0.00175   2.04909
    D1        0.00000   0.00000   0.00000   0.00000   0.00000   0.00000
    D2        3.14159  -0.00000   0.00000  -0.00000   0.00000   3.14159
    D3        0.00000   0.00000   0.00000  -0.00000   0.00000   0.00000
    D4        3.14159  -0.00000   0.00000  -0.00000   0.00000   3.14159
    D5        3.14159   0.00000   0.00000   0.00000   0.00000   3.14159
    D6        0.00000   0.00000   0.00000   0.00000   0.00000   0.00000
    D7        0.00000   0.00000   0.00000   0.00000   0.00000   0.00000
    D8        3.14159  -0.00000   0.00000   0.00000   0.00000   3.14159
    D9        0.00000  -0.00000   0.00000  -0.00000   0.00000   0.00000
   D10        3.14159  -0.00000   0.00000  -0.00000   0.00000   3.14159
   D11        3.14159   0.00000   0.00000  -0.00000   0.00000   3.14159
   D12        0.00000  -0.00000   0.00000  -0.00000   0.00000   0.00000
   D13        0.00000   0.00000   0.00000   0.00000   0.00000   0.00000
   D14        3.14159  -0.00000   0.00000   0.00000   0.00000   3.14159
   D15        3.14159   0.00000   0.00000   0.00000   0.00000   3.14159
   D16        0.00000   0.00000   0.00000   0.00000   0.00000   0.00000
   D17        0.00000   0.00000   0.00000  -0.00000   0.00000   0.00000
   D18        3.14159   0.00000   0.00000   0.00000   0.00000   3.14159
   D19        3.14159   0.00000   0.00000  -0.00000   0.00000   3.14159
   D20        0.00000   0.00000   0.00000  -0.00000   0.00000   0.00000
         Item               Value     Threshold  Converged?
 Maximum Force            0.001610     0.000450     NO 
 RMS     Force            0.000383     0.000300     NO 
 Maximum Displacement     0.005510     0.001800     NO 
 RMS     Displacement     0.001566     0.001200     NO 
 Predicted change in Energy=-1.566487D-05
 GradGradGradGradGradGradGradGradGradGradGradGradGradGradGradGradGradGrad

                          Input orientation:                          
 ---------------------------------------------------------------------
 Center     Atomic      Atomic             Coordinates (Angstroms)
 Number     Number       Type             X           Y           Z
 ---------------------------------------------------------------------
      1          6           0       -1.147221    1.223231    0.000000
      2          6           0        0.056332    1.968551    0.000000
      3          6           0        1.206055    1.142059    0.000000
      4          6           0        1.190538   -0.254797    0.000000
      5          6           0       -0.023404   -0.942542    0.000000
      6          6           0       -1.173138   -0.167079    0.000000
      7         17           0       -2.747677   -1.025453    0.000000
      8          1           0       -0.078373   -2.024388    0.000000
      9          1           0        2.192256    1.612878    0.000000
     10          1           0        2.119191   -0.824582    0.000000
     11          1           0       -2.113043    1.730201    0.000000
 ---------------------------------------------------------------------
                    Distance matrix (angstroms):
                    1          2          3          4          5
     1  C    0.000000
     2  C    1.415642   0.000000
     3  C    2.354676   1.415963   0.000000
     4  C    2.765807   2.495936   1.396942   0.000000
     5  C    2.439987   2.912184   2.420151   1.395224   0.000000
     6  C    1.390552   2.464247   2.715585   2.365303   1.386806
     7  Cl   2.760080   4.102015   4.508892   4.012910   2.725534
     8  H    3.418987   3.995210   3.417037   2.177519   1.083242
     9  H    3.362132   2.165334   1.092823   2.119351   3.382207
    10  H    3.855254   3.472315   2.168292   1.089518   2.145840
    11  H    1.090793   2.182429   3.370804   3.854071   3.392660
                    6          7          8          9         10
     6  C    0.000000
     7  Cl   1.793315   0.000000
     8  H    2.155947   2.850098   0.000000
     9  H    3.807115   5.600332   4.287827   0.000000
    10  H    3.357341   4.871011   2.503761   2.438555   0.000000
    11  H    2.117332   2.827789   4.270459   4.306897   4.943553
                   11
    11  H    0.000000
 Stoichiometry    C6H4Cl(1-)
 Framework group  CS[SG(C6H4Cl)]
 Deg. of freedom    19
 Full point group                 CS      NOp   2
 Largest Abelian subgroup         CS      NOp   2
 Largest concise Abelian subgroup C1      NOp   1
                         Standard orientation:                         
 ---------------------------------------------------------------------
 Center     Atomic      Atomic             Coordinates (Angstroms)
 Number     Number       Type             X           Y           Z
 ---------------------------------------------------------------------
      1          6           0        1.255461   -0.156086    0.000000
      2          6           0        1.437097   -1.560027    0.000000
      3          6           0        0.209509   -2.265703    0.000000
      4          6           0       -1.056208   -1.674597    0.000000
      5          6           0       -1.181120   -0.284975    0.000000
      6          6           0        0.000000    0.441788    0.000000
      7         17           0       -0.131360    2.230286    0.000000
      8          1           0       -2.143660    0.211944    0.000000
      9          1           0        0.230935   -3.358316    0.000000
     10          1           0       -1.958697   -2.284976    0.000000
     11          1           0        2.116097    0.514089    0.000000
 ---------------------------------------------------------------------
 Rotational constants (GHZ):           5.8132485           1.5814831           1.2432573
 Standard basis: 6-311++G(d,p) (5D, 7F)
 There are   149 symmetry adapted cartesian basis functions of A'  symmetry.
 There are    48 symmetry adapted cartesian basis functions of A"  symmetry.
 There are   142 symmetry adapted basis functions of A'  symmetry.
 There are    48 symmetry adapted basis functions of A"  symmetry.
   190 basis functions,   305 primitive gaussians,   197 cartesian basis functions
    29 alpha electrons       29 beta electrons
       nuclear repulsion energy       302.2154152661 Hartrees.
 NAtoms=   11 NActive=   11 NUniq=   11 SFac= 1.00D+00 NAtFMM=   60 NAOKFM=F Big=F
 Integral buffers will be    131072 words long.
 Raffenetti 2 integral format.
 Two-electron integral symmetry is turned on.
 One-electron integrals computed using PRISM.
 NBasis=   190 RedAO= T EigKep=  2.24D-06  NBF=   142    48
 NBsUse=   190 1.00D-06 EigRej= -1.00D+00 NBFU=   142    48
 Initial guess from the checkpoint file:  "frequency_chks/13dichlorobenzene_anion_product_Freq.chk"
 B after Tr=    -0.000000   -0.000000    0.000000
         Rot=    1.000000    0.000000   -0.000000    0.000569 Ang=   0.07 deg.
 Initial guess orbital symmetries:
       Occupied  (A') (A') (A') (A') (A') (A') (A') (A') (A') (A')
                 (A") (A') (A') (A') (A') (A') (A') (A') (A') (A')
                 (A') (A") (A') (A") (A') (A') (A") (A") (A')
       Virtual   (A') (A') (A') (A') (A') (A") (A") (A') (A") (A')
                 (A') (A") (A') (A") (A') (A') (A") (A') (A') (A')
                 (A') (A") (A') (A") (A") (A') (A') (A') (A') (A')
                 (A') (A') (A') (A') (A") (A') (A') (A') (A') (A')
                 (A') (A') (A') (A') (A') (A") (A') (A') (A') (A")
                 (A') (A') (A") (A') (A") (A') (A') (A") (A") (A')
                 (A') (A") (A') (A') (A') (A') (A') (A') (A') (A')
                 (A") (A') (A") (A') (A') (A') (A') (A') (A') (A")
                 (A') (A") (A") (A') (A") (A') (A") (A') (A") (A')
                 (A') (A') (A') (A") (A') (A") (A') (A') (A") (A')
                 (A") (A') (A') (A') (A") (A') (A") (A') (A") (A')
                 (A") (A') (A') (A") (A') (A") (A") (A') (A') (A')
                 (A') (A') (A') (A') (A') (A') (A") (A') (A') (A')
                 (A') (A") (A") (A') (A") (A") (A") (A') (A') (A')
                 (A') (A') (A') (A') (A') (A') (A') (A') (A') (A')
                 (A') (A') (A') (A') (A') (A') (A') (A") (A') (A')
                 (A')
 Keep R1 ints in memory in symmetry-blocked form, NReq=252081161.
 Requested convergence on RMS density matrix=1.00D-08 within 128 cycles.
 Requested convergence on MAX density matrix=1.00D-06.
 Requested convergence on             energy=1.00D-06.
 No special actions if energy rises.
 SCF Done:  E(RM062X) =  -691.167265803     A.U. after   11 cycles
            NFock= 11  Conv=0.93D-08     -V/T= 2.0028
 Calling FoFJK, ICntrl=      2127 FMM=F ISym2X=1 I1Cent= 0 IOpClX= 0 NMat=1 NMatS=1 NMatT=0.
 ***** Axes restored to original set *****
 -------------------------------------------------------------------
 Center     Atomic                   Forces (Hartrees/Bohr)
 Number     Number              X              Y              Z
 -------------------------------------------------------------------
      1        6          -0.000862604   -0.000086280   -0.000000000
      2        6           0.000165902   -0.000445698   -0.000000000
      3        6           0.000360901    0.000183122   -0.000000000
      4        6          -0.000200449   -0.000065984   -0.000000000
      5        6          -0.000228603   -0.000190664   -0.000000000
      6        6           0.001250554    0.000688006   -0.000000000
      7       17          -0.000671165   -0.000348330   -0.000000000
      8        1           0.000000422    0.000096898   -0.000000000
      9        1          -0.000147757    0.000026014   -0.000000000
     10        1           0.000072580    0.000102400   -0.000000000
     11        1           0.000260218    0.000040516   -0.000000000
 -------------------------------------------------------------------
 Cartesian Forces:  Max     0.001250554 RMS     0.000348184

 GradGradGradGradGradGradGradGradGradGradGradGradGradGradGradGradGradGrad
 Berny optimization.
 Using GEDIIS/GDIIS optimizer.
 FormGI is forming the generalized inverse of G from B-inverse, IUseBI=4.
 Internal  Forces:  Max     0.000756142 RMS     0.000166899
 Search for a local minimum.
 Step number   4 out of a maximum of   57
 All quantities printed in internal units (Hartrees-Bohrs-Radians)
 Mixed Optimization -- En-DIIS/RFO-DIIS
 Swapping is turned off.
 Update second derivatives using D2CorX and points    1    2    3    4
 DE= -2.07D-05 DEPred=-1.57D-05 R= 1.32D+00
 TightC=F SS=  1.41D+00  RLast= 1.24D-02 DXNew= 8.4853D-01 3.7329D-02
 Trust test= 1.32D+00 RLast= 1.24D-02 DXMaxT set to 5.05D-01
 ITU=  1  1  1  0
     Eigenvalues ---    0.02084   0.02088   0.02092   0.02096   0.02100
     Eigenvalues ---    0.02102   0.02109   0.02112   0.12900   0.15848
     Eigenvalues ---    0.16000   0.16052   0.17291   0.22034   0.22767
     Eigenvalues ---    0.25252   0.27374   0.35552   0.35672   0.35762
     Eigenvalues ---    0.36103   0.41116   0.42029   0.45575   0.45666
     Eigenvalues ---    0.45973   0.49116
 En-DIIS/RFO-DIIS/Sim-DIIS IScMMF=       -3 using points:     4    3
 RFO step:  Lambda=-7.91621816D-06.
 DidBck=F Rises=F RFO-DIIS coefs:    1.50906   -0.50906
 Iteration  1 RMS(Cart)=  0.00080909 RMS(Int)=  0.00000071
 Iteration  2 RMS(Cart)=  0.00000079 RMS(Int)=  0.00000042
 ClnCor:  largest displacement from symmetrization is 2.50D-10 for atom     8.
 Variable       Old X    -DE/DX   Delta X   Delta X   Delta X     New X
                                 (Linear)    (Quad)   (Total)
    R1        2.67517   0.00005   0.00073  -0.00022   0.00051   2.67569
    R2        2.62776  -0.00026  -0.00062  -0.00045  -0.00107   2.62669
    R3        2.06130  -0.00021  -0.00036  -0.00047  -0.00083   2.06047
    R4        2.67578  -0.00013   0.00041  -0.00051  -0.00010   2.67569
    R5        2.63984  -0.00003  -0.00042   0.00021  -0.00021   2.63963
    R6        2.06514  -0.00012  -0.00008  -0.00031  -0.00039   2.06474
    R7        2.63659   0.00006   0.00033  -0.00006   0.00028   2.63687
    R8        2.05889   0.00001  -0.00046   0.00045  -0.00001   2.05888
    R9        2.62068  -0.00008   0.00000  -0.00037  -0.00037   2.62031
   R10        2.04703  -0.00010  -0.00048  -0.00001  -0.00049   2.04654
   R11        3.38887   0.00076   0.00352   0.00120   0.00472   3.39359
    A1        2.14390  -0.00036  -0.00115  -0.00108  -0.00223   2.14167
    A2        2.10375   0.00002  -0.00044   0.00017  -0.00027   2.10348
    A3        2.03553   0.00034   0.00159   0.00091   0.00250   2.03803
    A4        1.96385   0.00035  -0.00050   0.00187   0.00137   1.96523
    A5        2.18296  -0.00020   0.00058  -0.00118  -0.00061   2.18235
    A6        2.07291   0.00001  -0.00079   0.00034  -0.00046   2.07245
    A7        2.02731   0.00019   0.00022   0.00085   0.00106   2.02838
    A8        2.09736  -0.00000   0.00066  -0.00045   0.00020   2.09756
    A9        2.11002  -0.00013  -0.00168   0.00019  -0.00148   2.10854
   A10        2.07581   0.00013   0.00102   0.00026   0.00128   2.07709
   A11        2.03275  -0.00004  -0.00209   0.00110  -0.00099   2.03177
   A12        2.13701   0.00003   0.00115  -0.00052   0.00064   2.13765
   A13        2.11342   0.00002   0.00094  -0.00058   0.00035   2.11377
   A14        2.14554   0.00025   0.00250  -0.00025   0.00225   2.14779
   A15        2.08855  -0.00015  -0.00161   0.00036  -0.00125   2.08731
   A16        2.04909  -0.00010  -0.00089  -0.00011  -0.00100   2.04809
    D1        0.00000  -0.00000   0.00000  -0.00000   0.00000   0.00000
    D2        3.14159  -0.00000   0.00000  -0.00000   0.00000   3.14159
    D3        0.00000   0.00000   0.00000   0.00000   0.00000   0.00000
    D4        3.14159   0.00000   0.00000   0.00000   0.00000   3.14159
    D5        3.14159   0.00000   0.00000   0.00000   0.00000   3.14159
    D6        0.00000   0.00000   0.00000   0.00000   0.00000   0.00000
    D7        0.00000   0.00000   0.00000  -0.00000   0.00000   0.00000
    D8        3.14159   0.00000   0.00000  -0.00000   0.00000   3.14159
    D9        0.00000   0.00000   0.00000   0.00000   0.00000   0.00000
   D10        3.14159   0.00000   0.00000   0.00000   0.00000   3.14159
   D11        3.14159   0.00000   0.00000   0.00000   0.00000   3.14159
   D12        0.00000   0.00000   0.00000   0.00000   0.00000   0.00000
   D13        0.00000  -0.00000   0.00000  -0.00000   0.00000   0.00000
   D14        3.14159  -0.00000   0.00000  -0.00000   0.00000   3.14159
   D15        3.14159  -0.00000   0.00000  -0.00000   0.00000   3.14159
   D16        0.00000  -0.00000   0.00000  -0.00000   0.00000   0.00000
   D17        0.00000   0.00000   0.00000  -0.00000   0.00000   0.00000
   D18        3.14159  -0.00000   0.00000  -0.00000   0.00000   3.14159
   D19        3.14159  -0.00000   0.00000  -0.00000   0.00000   3.14159
   D20        0.00000  -0.00000   0.00000  -0.00000   0.00000   0.00000
         Item               Value     Threshold  Converged?
 Maximum Force            0.000756     0.000450     NO 
 RMS     Force            0.000167     0.000300     YES
 Maximum Displacement     0.002235     0.001800     NO 
 RMS     Displacement     0.000809     0.001200     YES
 Predicted change in Energy=-3.958347D-06
 GradGradGradGradGradGradGradGradGradGradGradGradGradGradGradGradGradGrad

                          Input orientation:                          
 ---------------------------------------------------------------------
 Center     Atomic      Atomic             Coordinates (Angstroms)
 Number     Number       Type             X           Y           Z
 ---------------------------------------------------------------------
      1          6           0       -1.148057    1.223269    0.000000
      2          6           0        0.056424    1.967604    0.000000
      3          6           0        1.206466    1.141642    0.000000
      4          6           0        1.190710   -0.255101    0.000000
      5          6           0       -0.023338   -0.942956    0.000000
      6          6           0       -1.172168   -0.166506    0.000000
      7         17           0       -2.748859   -1.026147    0.000000
      8          1           0       -0.078946   -2.024511    0.000000
      9          1           0        2.192059    1.613251    0.000000
     10          1           0        2.120104   -0.823664    0.000000
     11          1           0       -2.112878    1.731197    0.000000
 ---------------------------------------------------------------------
                    Distance matrix (angstroms):
                    1          2          3          4          5
     1  C    0.000000
     2  C    1.415913   0.000000
     3  C    2.355937   1.415912   0.000000
     4  C    2.766841   2.495399   1.396832   0.000000
     5  C    2.440804   2.911652   2.420324   1.395370   0.000000
     6  C    1.389985   2.462491   2.714618   2.364538   1.386609
     7  Cl   2.760876   4.102701   4.510422   4.014314   2.726790
     8  H    3.419221   3.994409   3.417134   2.177806   1.082983
     9  H    3.362806   2.164833   1.092616   2.119773   3.382629
    10  H    3.856269   3.471303   2.167294   1.089512   2.146759
    11  H    1.090353   2.182146   3.371293   3.854746   3.393710
                    6          7          8          9         10
     6  C    0.000000
     7  Cl   1.795811   0.000000
     8  H    2.155763   2.850468   0.000000
     9  H    3.805990   5.601704   4.288446   0.000000
    10  H    3.357218   4.873172   2.505565   2.437976   0.000000
    11  H    2.118068   2.829738   4.271090   4.306552   4.944234
                   11
    11  H    0.000000
 Stoichiometry    C6H4Cl(1-)
 Framework group  CS[SG(C6H4Cl)]
 Deg. of freedom    19
 Full point group                 CS      NOp   2
 Largest Abelian subgroup         CS      NOp   2
 Largest concise Abelian subgroup C1      NOp   1
                         Standard orientation:                         
 ---------------------------------------------------------------------
 Center     Atomic      Atomic             Coordinates (Angstroms)
 Number     Number       Type             X           Y           Z
 ---------------------------------------------------------------------
      1          6           0        1.256139   -0.154820    0.000000
      2          6           0        1.437486   -1.559072    0.000000
      3          6           0        0.210748   -2.266123    0.000000
      4          6           0       -1.055184   -1.675738    0.000000
      5          6           0       -1.181133   -0.286064    0.000000
      6          6           0        0.000000    0.440302    0.000000
      7         17           0       -0.132887    2.231190    0.000000
      8          1           0       -2.143494    0.210639    0.000000
      9          1           0        0.233913   -3.358493    0.000000
     10          1           0       -1.956436   -2.287933    0.000000
     11          1           0        2.116763    0.514655    0.000000
 ---------------------------------------------------------------------
 Rotational constants (GHZ):           5.8127739           1.5805349           1.2426496
 Standard basis: 6-311++G(d,p) (5D, 7F)
 There are   149 symmetry adapted cartesian basis functions of A'  symmetry.
 There are    48 symmetry adapted cartesian basis functions of A"  symmetry.
 There are   142 symmetry adapted basis functions of A'  symmetry.
 There are    48 symmetry adapted basis functions of A"  symmetry.
   190 basis functions,   305 primitive gaussians,   197 cartesian basis functions
    29 alpha electrons       29 beta electrons
       nuclear repulsion energy       302.1540091206 Hartrees.
 NAtoms=   11 NActive=   11 NUniq=   11 SFac= 1.00D+00 NAtFMM=   60 NAOKFM=F Big=F
 Integral buffers will be    131072 words long.
 Raffenetti 2 integral format.
 Two-electron integral symmetry is turned on.
 One-electron integrals computed using PRISM.
 NBasis=   190 RedAO= T EigKep=  2.24D-06  NBF=   142    48
 NBsUse=   190 1.00D-06 EigRej= -1.00D+00 NBFU=   142    48
 Initial guess from the checkpoint file:  "frequency_chks/13dichlorobenzene_anion_product_Freq.chk"
 B after Tr=    -0.000000   -0.000000    0.000000
         Rot=    1.000000   -0.000000   -0.000000   -0.000334 Ang=  -0.04 deg.
 Initial guess orbital symmetries:
       Occupied  (A') (A') (A') (A') (A') (A') (A') (A') (A') (A')
                 (A") (A') (A') (A') (A') (A') (A') (A') (A') (A')
                 (A') (A") (A') (A") (A') (A') (A") (A") (A')
       Virtual   (A') (A') (A') (A') (A') (A") (A") (A') (A") (A')
                 (A') (A") (A') (A") (A') (A') (A") (A') (A') (A')
                 (A') (A") (A') (A") (A") (A') (A') (A') (A') (A')
                 (A') (A') (A') (A') (A") (A') (A') (A') (A') (A')
                 (A') (A') (A') (A') (A') (A") (A') (A') (A') (A')
                 (A") (A') (A") (A') (A") (A') (A') (A") (A") (A')
                 (A') (A") (A') (A') (A') (A') (A') (A') (A') (A')
                 (A") (A') (A") (A') (A') (A') (A') (A') (A') (A")
                 (A') (A") (A") (A') (A") (A') (A") (A') (A") (A')
                 (A') (A') (A') (A") (A') (A") (A') (A') (A") (A')
                 (A") (A') (A') (A') (A") (A') (A") (A') (A") (A')
                 (A") (A') (A') (A") (A') (A") (A") (A') (A') (A')
                 (A') (A') (A') (A') (A') (A') (A") (A') (A') (A')
                 (A') (A") (A") (A') (A") (A") (A") (A') (A') (A')
                 (A') (A') (A') (A') (A') (A') (A') (A') (A') (A')
                 (A') (A') (A') (A') (A') (A') (A') (A") (A') (A')
                 (A')
 Keep R1 ints in memory in symmetry-blocked form, NReq=252081161.
 Requested convergence on RMS density matrix=1.00D-08 within 128 cycles.
 Requested convergence on MAX density matrix=1.00D-06.
 Requested convergence on             energy=1.00D-06.
 No special actions if energy rises.
 SCF Done:  E(RM062X) =  -691.167270173     A.U. after   12 cycles
            NFock= 12  Conv=0.82D-08     -V/T= 2.0028
 Calling FoFJK, ICntrl=      2127 FMM=F ISym2X=1 I1Cent= 0 IOpClX= 0 NMat=1 NMatS=1 NMatT=0.
 ***** Axes restored to original set *****
 -------------------------------------------------------------------
 Center     Atomic                   Forces (Hartrees/Bohr)
 Number     Number              X              Y              Z
 -------------------------------------------------------------------
      1        6          -0.000026660    0.000054172   -0.000000000
      2        6           0.000046256   -0.000202806   -0.000000000
      3        6          -0.000061529    0.000198806   -0.000000000
      4        6          -0.000028351   -0.000103366   -0.000000000
      5        6           0.000019715    0.000128364   -0.000000000
      6        6           0.000159523    0.000102406   -0.000000000
      7       17          -0.000112429   -0.000097689   -0.000000000
      8        1           0.000000246   -0.000030257   -0.000000000
      9        1          -0.000024146   -0.000006808   -0.000000000
     10        1           0.000003808   -0.000052551   -0.000000000
     11        1           0.000023566    0.000009728   -0.000000000
 -------------------------------------------------------------------
 Cartesian Forces:  Max     0.000202806 RMS     0.000074196

 GradGradGradGradGradGradGradGradGradGradGradGradGradGradGradGradGradGrad
 Berny optimization.
 Using GEDIIS/GDIIS optimizer.
 FormGI is forming the generalized inverse of G from B-inverse, IUseBI=4.
 Internal  Forces:  Max     0.000145559 RMS     0.000044334
 Search for a local minimum.
 Step number   5 out of a maximum of   57
 All quantities printed in internal units (Hartrees-Bohrs-Radians)
 Mixed Optimization -- En-DIIS/RFO-DIIS
 Swapping is turned off.
 Update second derivatives using D2CorX and points    1    2    3    4    5
 DE= -4.37D-06 DEPred=-3.96D-06 R= 1.10D+00
 TightC=F SS=  1.41D+00  RLast= 7.27D-03 DXNew= 8.4853D-01 2.1811D-02
 Trust test= 1.10D+00 RLast= 7.27D-03 DXMaxT set to 5.05D-01
 ITU=  1  1  1  1  0
     Eigenvalues ---    0.02084   0.02088   0.02092   0.02096   0.02100
     Eigenvalues ---    0.02102   0.02109   0.02112   0.12410   0.15339
     Eigenvalues ---    0.16005   0.16073   0.16908   0.20255   0.22298
     Eigenvalues ---    0.25599   0.27042   0.35482   0.35707   0.35769
     Eigenvalues ---    0.36305   0.41359   0.41867   0.45478   0.45734
     Eigenvalues ---    0.45950   0.50344
 En-DIIS/RFO-DIIS/Sim-DIIS IScMMF=       -3 using points:     5    4    3
 RFO step:  Lambda=-3.87253802D-07.
 DidBck=F Rises=F RFO-DIIS coefs:    1.31529   -0.43602    0.12072
 Iteration  1 RMS(Cart)=  0.00027537 RMS(Int)=  0.00000011
 Iteration  2 RMS(Cart)=  0.00000007 RMS(Int)=  0.00000010
 ClnCor:  largest displacement from symmetrization is 3.75D-11 for atom     8.
 Variable       Old X    -DE/DX   Delta X   Delta X   Delta X     New X
                                 (Linear)    (Quad)   (Total)
    R1        2.67569  -0.00006  -0.00001  -0.00012  -0.00014   2.67555
    R2        2.62669  -0.00003  -0.00019   0.00006  -0.00013   2.62656
    R3        2.06047  -0.00002  -0.00018   0.00008  -0.00010   2.06037
    R4        2.67569  -0.00012  -0.00013  -0.00019  -0.00032   2.67537
    R5        2.63963   0.00008   0.00003   0.00016   0.00020   2.63983
    R6        2.06474  -0.00002  -0.00010  -0.00000  -0.00011   2.06464
    R7        2.63687  -0.00008   0.00001  -0.00018  -0.00017   2.63670
    R8        2.05888   0.00003   0.00011  -0.00003   0.00007   2.05895
    R9        2.62031  -0.00003  -0.00012   0.00004  -0.00008   2.62023
   R10        2.04654   0.00003  -0.00004   0.00011   0.00007   2.04661
   R11        3.39359   0.00015   0.00065   0.00022   0.00088   3.39447
    A1        2.14167  -0.00006  -0.00043  -0.00007  -0.00050   2.14117
    A2        2.10348   0.00001   0.00002  -0.00001   0.00001   2.10349
    A3        2.03803   0.00005   0.00041   0.00008   0.00049   2.03852
    A4        1.96523   0.00010   0.00055   0.00000   0.00056   1.96578
    A5        2.18235  -0.00004  -0.00033   0.00013  -0.00020   2.18216
    A6        2.07245   0.00001   0.00004  -0.00003   0.00001   2.07246
    A7        2.02838   0.00002   0.00028  -0.00010   0.00019   2.02857
    A8        2.09756  -0.00005  -0.00009  -0.00013  -0.00022   2.09734
    A9        2.10854   0.00007  -0.00007   0.00042   0.00035   2.10888
   A10        2.07709  -0.00002   0.00016  -0.00028  -0.00012   2.07697
   A11        2.03177   0.00005   0.00018   0.00002   0.00020   2.03197
   A12        2.13765  -0.00003  -0.00007  -0.00005  -0.00012   2.13753
   A13        2.11377  -0.00002  -0.00011   0.00003  -0.00008   2.11368
   A14        2.14779   0.00000   0.00012   0.00005   0.00016   2.14795
   A15        2.08731   0.00006  -0.00001   0.00018   0.00017   2.08748
   A16        2.04809  -0.00006  -0.00010  -0.00023  -0.00034   2.04775
    D1        0.00000  -0.00000   0.00000   0.00000   0.00000   0.00000
    D2        3.14159   0.00000   0.00000   0.00000   0.00000   3.14159
    D3        0.00000  -0.00000   0.00000  -0.00000   0.00000   0.00000
    D4        3.14159   0.00000   0.00000  -0.00000   0.00000   3.14159
    D5        3.14159  -0.00000   0.00000  -0.00000   0.00000   3.14159
    D6        0.00000  -0.00000   0.00000  -0.00000   0.00000   0.00000
    D7        0.00000  -0.00000   0.00000   0.00000   0.00000   0.00000
    D8        3.14159  -0.00000   0.00000  -0.00000   0.00000   3.14159
    D9        0.00000  -0.00000   0.00000  -0.00000   0.00000   0.00000
   D10        3.14159   0.00000   0.00000  -0.00000   0.00000   3.14159
   D11        3.14159  -0.00000   0.00000  -0.00000   0.00000   3.14159
   D12        0.00000  -0.00000   0.00000  -0.00000   0.00000   0.00000
   D13        0.00000   0.00000   0.00000   0.00000   0.00000   0.00000
   D14        3.14159   0.00000   0.00000   0.00000   0.00000   3.14159
   D15        3.14159  -0.00000   0.00000   0.00000   0.00000   3.14159
   D16        0.00000  -0.00000   0.00000   0.00000   0.00000   0.00000
   D17        0.00000   0.00000   0.00000   0.00000   0.00000   0.00000
   D18        3.14159  -0.00000   0.00000   0.00000   0.00000   3.14159
   D19        3.14159   0.00000   0.00000   0.00000   0.00000   3.14159
   D20        0.00000  -0.00000   0.00000   0.00000   0.00000   0.00000
         Item               Value     Threshold  Converged?
 Maximum Force            0.000146     0.000450     YES
 RMS     Force            0.000044     0.000300     YES
 Maximum Displacement     0.001092     0.001800     YES
 RMS     Displacement     0.000275     0.001200     YES
 Predicted change in Energy=-1.908715D-07
 Optimization completed.
    -- Stationary point found.
                           ----------------------------
                           !   Optimized Parameters   !
                           ! (Angstroms and Degrees)  !
 --------------------------                            --------------------------
 ! Name  Definition              Value          Derivative Info.                !
 --------------------------------------------------------------------------------
 ! R1    R(1,2)                  1.4159         -DE/DX =   -0.0001              !
 ! R2    R(1,6)                  1.39           -DE/DX =    0.0                 !
 ! R3    R(1,11)                 1.0904         -DE/DX =    0.0                 !
 ! R4    R(2,3)                  1.4159         -DE/DX =   -0.0001              !
 ! R5    R(3,4)                  1.3968         -DE/DX =    0.0001              !
 ! R6    R(3,9)                  1.0926         -DE/DX =    0.0                 !
 ! R7    R(4,5)                  1.3954         -DE/DX =   -0.0001              !
 ! R8    R(4,10)                 1.0895         -DE/DX =    0.0                 !
 ! R9    R(5,6)                  1.3866         -DE/DX =    0.0                 !
 ! R10   R(5,8)                  1.083          -DE/DX =    0.0                 !
 ! R11   R(6,7)                  1.7958         -DE/DX =    0.0001              !
 ! A1    A(2,1,6)              122.7088         -DE/DX =   -0.0001              !
 ! A2    A(2,1,11)             120.5207         -DE/DX =    0.0                 !
 ! A3    A(6,1,11)             116.7706         -DE/DX =    0.0001              !
 ! A4    A(1,2,3)              112.5992         -DE/DX =    0.0001              !
 ! A5    A(2,3,4)              125.0397         -DE/DX =    0.0                 !
 ! A6    A(2,3,9)              118.7428         -DE/DX =    0.0                 !
 ! A7    A(4,3,9)              116.2175         -DE/DX =    0.0                 !
 ! A8    A(3,4,5)              120.1813         -DE/DX =    0.0                 !
 ! A9    A(3,4,10)             120.8102         -DE/DX =    0.0001              !
 ! A10   A(5,4,10)             119.0085         -DE/DX =    0.0                 !
 ! A11   A(4,5,6)              116.4117         -DE/DX =    0.0001              !
 ! A12   A(4,5,8)              122.4783         -DE/DX =    0.0                 !
 ! A13   A(6,5,8)              121.11           -DE/DX =    0.0                 !
 ! A14   A(1,6,5)              123.0593         -DE/DX =    0.0                 !
 ! A15   A(1,6,7)              119.5939         -DE/DX =    0.0001              !
 ! A16   A(5,6,7)              117.3468         -DE/DX =   -0.0001              !
 ! D1    D(6,1,2,3)              0.0            -DE/DX =    0.0                 !
 ! D2    D(11,1,2,3)           180.0            -DE/DX =    0.0                 !
 ! D3    D(2,1,6,5)              0.0            -DE/DX =    0.0                 !
 ! D4    D(2,1,6,7)            180.0            -DE/DX =    0.0                 !
 ! D5    D(11,1,6,5)           180.0            -DE/DX =    0.0                 !
 ! D6    D(11,1,6,7)             0.0            -DE/DX =    0.0                 !
 ! D7    D(1,2,3,4)              0.0            -DE/DX =    0.0                 !
 ! D8    D(1,2,3,9)            180.0            -DE/DX =    0.0                 !
 ! D9    D(2,3,4,5)              0.0            -DE/DX =    0.0                 !
 ! D10   D(2,3,4,10)           180.0            -DE/DX =    0.0                 !
 ! D11   D(9,3,4,5)            180.0            -DE/DX =    0.0                 !
 ! D12   D(9,3,4,10)             0.0            -DE/DX =    0.0                 !
 ! D13   D(3,4,5,6)              0.0            -DE/DX =    0.0                 !
 ! D14   D(3,4,5,8)            180.0            -DE/DX =    0.0                 !
 ! D15   D(10,4,5,6)           180.0            -DE/DX =    0.0                 !
 ! D16   D(10,4,5,8)             0.0            -DE/DX =    0.0                 !
 ! D17   D(4,5,6,1)              0.0            -DE/DX =    0.0                 !
 ! D18   D(4,5,6,7)            180.0            -DE/DX =    0.0                 !
 ! D19   D(8,5,6,1)            180.0            -DE/DX =    0.0                 !
 ! D20   D(8,5,6,7)              0.0            -DE/DX =    0.0                 !
 --------------------------------------------------------------------------------
 GradGradGradGradGradGradGradGradGradGradGradGradGradGradGradGradGradGrad

                          Input orientation:                          
 ---------------------------------------------------------------------
 Center     Atomic      Atomic             Coordinates (Angstroms)
 Number     Number       Type             X           Y           Z
 ---------------------------------------------------------------------
      1          6           0       -1.148057    1.223269    0.000000
      2          6           0        0.056424    1.967604    0.000000
      3          6           0        1.206466    1.141642    0.000000
      4          6           0        1.190710   -0.255101    0.000000
      5          6           0       -0.023338   -0.942956    0.000000
      6          6           0       -1.172168   -0.166506    0.000000
      7         17           0       -2.748859   -1.026147    0.000000
      8          1           0       -0.078946   -2.024511    0.000000
      9          1           0        2.192059    1.613251    0.000000
     10          1           0        2.120104   -0.823664    0.000000
     11          1           0       -2.112878    1.731197    0.000000
 ---------------------------------------------------------------------
                    Distance matrix (angstroms):
                    1          2          3          4          5
     1  C    0.000000
     2  C    1.415913   0.000000
     3  C    2.355937   1.415912   0.000000
     4  C    2.766841   2.495399   1.396832   0.000000
     5  C    2.440804   2.911652   2.420324   1.395370   0.000000
     6  C    1.389985   2.462491   2.714618   2.364538   1.386609
     7  Cl   2.760876   4.102701   4.510422   4.014314   2.726790
     8  H    3.419221   3.994409   3.417134   2.177806   1.082983
     9  H    3.362806   2.164833   1.092616   2.119773   3.382629
    10  H    3.856269   3.471303   2.167294   1.089512   2.146759
    11  H    1.090353   2.182146   3.371293   3.854746   3.393710
                    6          7          8          9         10
     6  C    0.000000
     7  Cl   1.795811   0.000000
     8  H    2.155763   2.850468   0.000000
     9  H    3.805990   5.601704   4.288446   0.000000
    10  H    3.357218   4.873172   2.505565   2.437976   0.000000
    11  H    2.118068   2.829738   4.271090   4.306552   4.944234
                   11
    11  H    0.000000
 Stoichiometry    C6H4Cl(1-)
 Framework group  CS[SG(C6H4Cl)]
 Deg. of freedom    19
 Full point group                 CS      NOp   2
 Largest Abelian subgroup         CS      NOp   2
 Largest concise Abelian subgroup C1      NOp   1
                         Standard orientation:                         
 ---------------------------------------------------------------------
 Center     Atomic      Atomic             Coordinates (Angstroms)
 Number     Number       Type             X           Y           Z
 ---------------------------------------------------------------------
      1          6           0        1.256139   -0.154820    0.000000
      2          6           0        1.437486   -1.559072    0.000000
      3          6           0        0.210748   -2.266123    0.000000
      4          6           0       -1.055184   -1.675738    0.000000
      5          6           0       -1.181133   -0.286064    0.000000
      6          6           0        0.000000    0.440302    0.000000
      7         17           0       -0.132887    2.231190    0.000000
      8          1           0       -2.143494    0.210639    0.000000
      9          1           0        0.233913   -3.358493    0.000000
     10          1           0       -1.956436   -2.287933    0.000000
     11          1           0        2.116763    0.514655    0.000000
 ---------------------------------------------------------------------
 Rotational constants (GHZ):           5.8127739           1.5805349           1.2426496

 **********************************************************************

            Population analysis using the SCF Density.

 **********************************************************************

 Orbital symmetries:
       Occupied  (A') (A') (A') (A') (A') (A') (A') (A') (A') (A')
                 (A") (A') (A') (A') (A') (A') (A') (A') (A') (A')
                 (A') (A") (A') (A") (A') (A') (A") (A") (A')
       Virtual   (A') (A') (A') (A') (A') (A") (A") (A') (A") (A')
                 (A') (A") (A') (A") (A') (A') (A") (A') (A') (A')
                 (A') (A") (A') (A") (A") (A') (A') (A') (A') (A')
                 (A') (A') (A') (A') (A") (A') (A') (A') (A') (A')
                 (A') (A') (A') (A') (A') (A") (A') (A') (A') (A")
                 (A') (A') (A") (A') (A") (A') (A') (A") (A") (A')
                 (A') (A") (A') (A') (A') (A') (A') (A') (A') (A')
                 (A") (A') (A") (A') (A') (A') (A') (A') (A') (A")
                 (A') (A") (A") (A') (A") (A') (A") (A') (A") (A')
                 (A') (A') (A') (A") (A') (A") (A') (A') (A") (A')
                 (A") (A') (A') (A') (A") (A') (A") (A') (A") (A')
                 (A") (A') (A') (A") (A') (A") (A") (A') (A') (A')
                 (A') (A') (A') (A') (A') (A') (A") (A') (A') (A')
                 (A') (A") (A") (A') (A") (A") (A") (A') (A') (A')
                 (A') (A') (A') (A') (A') (A') (A') (A') (A') (A')
                 (A') (A') (A') (A') (A') (A') (A') (A") (A') (A')
                 (A')
 The electronic state is 1-A'.
 Alpha  occ. eigenvalues -- -102.52301 -10.43653 -10.38588 -10.38296 -10.36443
 Alpha  occ. eigenvalues --  -10.35882 -10.31517  -9.66557  -7.39016  -7.38435
 Alpha  occ. eigenvalues --   -7.38432  -0.82275  -0.75802  -0.66044  -0.64437
 Alpha  occ. eigenvalues --   -0.51109  -0.48614  -0.41874  -0.34980  -0.34233
 Alpha  occ. eigenvalues --   -0.31702  -0.29702  -0.28657  -0.23375  -0.23210
 Alpha  occ. eigenvalues --   -0.21862  -0.13277  -0.11836  -0.04791
 Alpha virt. eigenvalues --    0.10168   0.11614   0.12616   0.13378   0.15218
 Alpha virt. eigenvalues --    0.17283   0.18378   0.19507   0.20141   0.20402
 Alpha virt. eigenvalues --    0.21152   0.21443   0.22742   0.23579   0.23985
 Alpha virt. eigenvalues --    0.24748   0.25702   0.26024   0.26825   0.27227
 Alpha virt. eigenvalues --    0.27472   0.27620   0.28796   0.28984   0.29162
 Alpha virt. eigenvalues --    0.30432   0.31229   0.31388   0.34599   0.34972
 Alpha virt. eigenvalues --    0.35738   0.36424   0.38741   0.39232   0.39542
 Alpha virt. eigenvalues --    0.40422   0.41631   0.44853   0.45343   0.46459
 Alpha virt. eigenvalues --    0.50506   0.52600   0.53807   0.54553   0.61522
 Alpha virt. eigenvalues --    0.62061   0.63926   0.67738   0.69354   0.72955
 Alpha virt. eigenvalues --    0.72955   0.74637   0.77041   0.77469   0.77759
 Alpha virt. eigenvalues --    0.78553   0.80962   0.81525   0.82392   0.85528
 Alpha virt. eigenvalues --    0.86746   0.88916   0.91057   0.93279   0.94454
 Alpha virt. eigenvalues --    0.97821   0.98880   1.02840   1.03899   1.04512
 Alpha virt. eigenvalues --    1.05369   1.06101   1.08679   1.09058   1.10218
 Alpha virt. eigenvalues --    1.11126   1.14314   1.15743   1.17287   1.23187
 Alpha virt. eigenvalues --    1.23424   1.23939   1.32304   1.33672   1.36029
 Alpha virt. eigenvalues --    1.38641   1.40506   1.41856   1.52536   1.60546
 Alpha virt. eigenvalues --    1.68243   1.72577   1.73193   1.77187   1.79896
 Alpha virt. eigenvalues --    1.81829   1.85589   1.87683   1.88422   1.90036
 Alpha virt. eigenvalues --    1.94930   1.97230   2.06723   2.10585   2.11859
 Alpha virt. eigenvalues --    2.13119   2.13854   2.14303   2.18460   2.21474
 Alpha virt. eigenvalues --    2.23252   2.23746   2.26183   2.40400   2.42995
 Alpha virt. eigenvalues --    2.47533   2.53760   2.54409   2.59609   2.65017
 Alpha virt. eigenvalues --    2.69204   2.70242   2.71790   2.73568   2.85448
 Alpha virt. eigenvalues --    2.87869   2.88913   2.90933   2.92237   2.93806
 Alpha virt. eigenvalues --    2.96876   3.01336   3.03200   3.06964   3.11538
 Alpha virt. eigenvalues --    3.13712   3.30536   3.30634   3.36745   3.41224
 Alpha virt. eigenvalues --    3.57659   3.58932   3.70288   3.75165   3.92603
 Alpha virt. eigenvalues --    4.02752   4.21298   4.32522   4.33139   4.97622
 Alpha virt. eigenvalues --   10.10326  23.75901  24.14569  24.19299  24.30513
 Alpha virt. eigenvalues --   24.31747  24.39043  26.07842  26.36997  26.82630
 Alpha virt. eigenvalues --  216.20365
          Condensed to atoms (all electrons):
               1          2          3          4          5          6
     1  C   17.621483   0.808348  -0.452830  -0.279972  -7.667018  -3.409544
     2  C    0.808348   6.881796   0.068844   0.593443  -2.620659   0.077317
     3  C   -0.452830   0.068844   7.113344  -0.862175   2.833842  -2.370641
     4  C   -0.279972   0.593443  -0.862175   7.502922  -1.845024   0.704340
     5  C   -7.667018  -2.620659   2.833842  -1.845024  19.725874  -4.364665
     6  C   -3.409544   0.077317  -2.370641   0.704340  -4.364665  15.829025
     7  Cl  -0.166485   0.244060  -0.024514   0.168974   0.339139  -1.113136
     8  H   -0.172238  -0.046891   0.092570  -0.067168   0.725608  -0.223154
     9  H   -0.010384   0.013859   0.391651  -0.177819   0.034743   0.001901
    10  H    0.082932   0.054692  -0.090826   0.344395  -0.217452   0.060157
    11  H    0.651042   0.072566  -0.053300   0.046958  -0.166139  -0.336801
               7          8          9         10         11
     1  C   -0.166485  -0.172238  -0.010384   0.082932   0.651042
     2  C    0.244060  -0.046891   0.013859   0.054692   0.072566
     3  C   -0.024514   0.092570   0.391651  -0.090826  -0.053300
     4  C    0.168974  -0.067168  -0.177819   0.344395   0.046958
     5  C    0.339139   0.725608   0.034743  -0.217452  -0.166139
     6  C   -1.113136  -0.223154   0.001901   0.060157  -0.336801
     7  Cl  17.436809   0.013325   0.000883   0.000072   0.025740
     8  H    0.013325   0.574248   0.001850  -0.022735  -0.005613
     9  H    0.000883   0.001850   0.642070  -0.000574  -0.003083
    10  H    0.000072  -0.022735  -0.000574   0.647706   0.006334
    11  H    0.025740  -0.005613  -0.003083   0.006334   0.647234
 Mulliken charges:
               1
     1  C   -1.005334
     2  C   -0.147375
     3  C   -0.645966
     4  C   -0.128872
     5  C   -0.778249
     6  C    1.145202
     7  Cl   0.075132
     8  H    0.130198
     9  H    0.104903
    10  H    0.135299
    11  H    0.115061
 Sum of Mulliken charges =  -1.00000
 Mulliken charges with hydrogens summed into heavy atoms:
               1
     1  C   -0.890273
     2  C   -0.147375
     3  C   -0.541064
     4  C    0.006427
     5  C   -0.648051
     6  C    1.145202
     7  Cl   0.075132
 Electronic spatial extent (au):  <R**2>=            912.1412
 Charge=             -1.0000 electrons
 Dipole moment (field-independent basis, Debye):
    X=             -4.8211    Y=              3.4910    Z=              0.0000  Tot=              5.9523
 Quadrupole moment (field-independent basis, Debye-Ang):
   XX=            -63.9268   YY=            -69.8534   ZZ=            -55.8945
   XY=             10.7440   XZ=              0.0000   YZ=              0.0000
 Traceless Quadrupole moment (field-independent basis, Debye-Ang):
   XX=             -0.7019   YY=             -6.6285   ZZ=              7.3304
   XY=             10.7440   XZ=              0.0000   YZ=              0.0000
 Octapole moment (field-independent basis, Debye-Ang**2):
  XXX=            -40.1903  YYY=             32.2077  ZZZ=              0.0000  XYY=            -23.3347
  XXY=             33.2051  XXZ=              0.0000  XZZ=             -3.8749  YZZ=             11.7158
  YYZ=              0.0000  XYZ=              0.0000
 Hexadecapole moment (field-independent basis, Debye-Ang**3):
 XXXX=           -437.0101 YYYY=           -997.5750 ZZZZ=            -76.4662 XXXY=             93.3941
 XXXZ=              0.0000 YYYX=             74.1472 YYYZ=              0.0000 ZZZX=              0.0000
 ZZZY=              0.0000 XXYY=           -272.5615 XXZZ=            -84.2860 YYZZ=           -182.9865
 XXYZ=              0.0000 YYXZ=              0.0000 ZZXY=             12.1619
 N-N= 3.021540091206D+02 E-N=-2.244602554251D+03  KE= 6.892626018192D+02
 Symmetry A'   KE= 6.372634744034D+02
 Symmetry A"   KE= 5.199912741578D+01
 1\1\GINC-SH03-08N45\FOpt\RM062X\6-311++G(d,p)\C6H4Cl1(1-)\JLAPIER\03-A
 pr-2026\0\\# opt freq 6-311++g(d,p) m062x\\chlorobenzene anion radical
 \\-1,1\C,-1.1480572051,1.2232691674,0.\C,0.0564242198,1.9676036238,0.\
 C,1.2064656419,1.1416421536,0.\C,1.1907100086,-0.2551006627,0.\C,-0.02
 33381697,-0.9429558906,0.\C,-1.1721679059,-0.1665062542,0.\Cl,-2.74885
 93136,-1.0261466178,0.\H,-0.0789464827,-2.0245105556,0.\H,2.1920591925
 ,1.6132505012,0.\H,2.1201040727,-0.8236636037,0.\H,-2.112877715,1.7311
 968061,0.\\Version=ES64L-G16RevB.01\State=1-A'\HF=-691.1672702\RMSD=8.
 240e-09\RMSF=7.420e-05\Dipole=-0.468994,-2.294378,0.\Quadrupole=1.8234
 965,-7.273461,5.4499644,-6.9261546,0.,0.\PG=CS [SG(C6H4Cl1)]\\@


 WE HAVE LEARNED THAT NOTHING IS SIMPLE AND
 RATIONAL EXCEPT WHAT WE OURSELVES HAVE INVENTED;
 THAT GOD THINKS IN TERMS NEITHER OF EUCLID OR RIEMANN; THAT SCIENCE HAS "EXPLAINED" NOTHING;
 THAT THE MORE WE KNOW THE MORE FANTASTIC THE WORLD BECOMES
 AND THE PROFOUNDER THE SURROUNDING DARKNESS.
   --  ALDOUS HUXLEY
 Job cpu time:       0 days  0 hours  7 minutes 53.8 seconds.
 Elapsed time:       0 days  0 hours  2 minutes  3.4 seconds.
 File lengths (MBytes):  RWF=     26 Int=      0 D2E=      0 Chk=      4 Scr=      1
 Normal termination of Gaussian 16 at Fri Apr  3 14:14:28 2026.
 Link1:  Proceeding to internal job step number  2.
 ----------------------------------------------------------------------
 #N Geom=AllCheck Guess=TCheck SCRF=Check GenChk RM062X/6-311++G(d,p) F
 req
 ----------------------------------------------------------------------
 1/10=4,29=7,30=1,38=1,40=1/1,3;
 2/12=2,40=1/2;
 3/5=4,6=6,7=1111,11=2,14=-4,25=1,30=1,70=2,71=2,74=-55,116=1,140=1/1,2,3;
 4/5=101/1;
 5/5=2,38=6,98=1/2;
 8/6=4,10=90,11=11/1;
 11/6=1,8=1,9=11,15=111,16=1/1,2,10;
 10/6=1/2;
 6/7=2,8=2,9=2,10=2,28=1/1;
 7/8=1,10=1,25=1/1,2,3,16;
 1/10=4,30=1/3;
 99//99;
 Structure from the checkpoint file:  "frequency_chks/13dichlorobenzene_anion_product_Freq.chk"
 ---------------------------
 chlorobenzene anion radical
 ---------------------------
 Charge = -1 Multiplicity = 1
 Redundant internal coordinates found in file.  (old form).
 C,0,-1.1480572051,1.2232691674,0.
 C,0,0.0564242198,1.9676036238,0.
 C,0,1.2064656419,1.1416421536,0.
 C,0,1.1907100086,-0.2551006627,0.
 C,0,-0.0233381697,-0.9429558906,0.
 C,0,-1.1721679059,-0.1665062542,0.
 Cl,0,-2.7488593136,-1.0261466178,0.
 H,0,-0.0789464827,-2.0245105556,0.
 H,0,2.1920591925,1.6132505012,0.
 H,0,2.1201040727,-0.8236636037,0.
 H,0,-2.112877715,1.7311968061,0.
 Recover connectivity data from disk.

 GradGradGradGradGradGradGradGradGradGradGradGradGradGradGradGradGradGrad
 Berny optimization.
 Initialization pass.
                           ----------------------------
                           !    Initial Parameters    !
                           ! (Angstroms and Degrees)  !
 --------------------------                            --------------------------
 ! Name  Definition              Value          Derivative Info.                !
 --------------------------------------------------------------------------------
 ! R1    R(1,2)                  1.4159         calculate D2E/DX2 analytically  !
 ! R2    R(1,6)                  1.39           calculate D2E/DX2 analytically  !
 ! R3    R(1,11)                 1.0904         calculate D2E/DX2 analytically  !
 ! R4    R(2,3)                  1.4159         calculate D2E/DX2 analytically  !
 ! R5    R(3,4)                  1.3968         calculate D2E/DX2 analytically  !
 ! R6    R(3,9)                  1.0926         calculate D2E/DX2 analytically  !
 ! R7    R(4,5)                  1.3954         calculate D2E/DX2 analytically  !
 ! R8    R(4,10)                 1.0895         calculate D2E/DX2 analytically  !
 ! R9    R(5,6)                  1.3866         calculate D2E/DX2 analytically  !
 ! R10   R(5,8)                  1.083          calculate D2E/DX2 analytically  !
 ! R11   R(6,7)                  1.7958         calculate D2E/DX2 analytically  !
 ! A1    A(2,1,6)              122.7088         calculate D2E/DX2 analytically  !
 ! A2    A(2,1,11)             120.5207         calculate D2E/DX2 analytically  !
 ! A3    A(6,1,11)             116.7706         calculate D2E/DX2 analytically  !
 ! A4    A(1,2,3)              112.5992         calculate D2E/DX2 analytically  !
 ! A5    A(2,3,4)              125.0397         calculate D2E/DX2 analytically  !
 ! A6    A(2,3,9)              118.7428         calculate D2E/DX2 analytically  !
 ! A7    A(4,3,9)              116.2175         calculate D2E/DX2 analytically  !
 ! A8    A(3,4,5)              120.1813         calculate D2E/DX2 analytically  !
 ! A9    A(3,4,10)             120.8102         calculate D2E/DX2 analytically  !
 ! A10   A(5,4,10)             119.0085         calculate D2E/DX2 analytically  !
 ! A11   A(4,5,6)              116.4117         calculate D2E/DX2 analytically  !
 ! A12   A(4,5,8)              122.4783         calculate D2E/DX2 analytically  !
 ! A13   A(6,5,8)              121.11           calculate D2E/DX2 analytically  !
 ! A14   A(1,6,5)              123.0593         calculate D2E/DX2 analytically  !
 ! A15   A(1,6,7)              119.5939         calculate D2E/DX2 analytically  !
 ! A16   A(5,6,7)              117.3468         calculate D2E/DX2 analytically  !
 ! D1    D(6,1,2,3)              0.0            calculate D2E/DX2 analytically  !
 ! D2    D(11,1,2,3)           180.0            calculate D2E/DX2 analytically  !
 ! D3    D(2,1,6,5)              0.0            calculate D2E/DX2 analytically  !
 ! D4    D(2,1,6,7)            180.0            calculate D2E/DX2 analytically  !
 ! D5    D(11,1,6,5)           180.0            calculate D2E/DX2 analytically  !
 ! D6    D(11,1,6,7)             0.0            calculate D2E/DX2 analytically  !
 ! D7    D(1,2,3,4)              0.0            calculate D2E/DX2 analytically  !
 ! D8    D(1,2,3,9)            180.0            calculate D2E/DX2 analytically  !
 ! D9    D(2,3,4,5)              0.0            calculate D2E/DX2 analytically  !
 ! D10   D(2,3,4,10)           180.0            calculate D2E/DX2 analytically  !
 ! D11   D(9,3,4,5)            180.0            calculate D2E/DX2 analytically  !
 ! D12   D(9,3,4,10)             0.0            calculate D2E/DX2 analytically  !
 ! D13   D(3,4,5,6)              0.0            calculate D2E/DX2 analytically  !
 ! D14   D(3,4,5,8)            180.0            calculate D2E/DX2 analytically  !
 ! D15   D(10,4,5,6)           180.0            calculate D2E/DX2 analytically  !
 ! D16   D(10,4,5,8)             0.0            calculate D2E/DX2 analytically  !
 ! D17   D(4,5,6,1)              0.0            calculate D2E/DX2 analytically  !
 ! D18   D(4,5,6,7)            180.0            calculate D2E/DX2 analytically  !
 ! D19   D(8,5,6,1)            180.0            calculate D2E/DX2 analytically  !
 ! D20   D(8,5,6,7)              0.0            calculate D2E/DX2 analytically  !
 --------------------------------------------------------------------------------
 Trust Radius=3.00D-01 FncErr=1.00D-07 GrdErr=1.00D-07 EigMax=2.50D+02 EigMin=1.00D-04
 Number of steps in this run=      2 maximum allowed number of steps=      2.
 GradGradGradGradGradGradGradGradGradGradGradGradGradGradGradGradGradGrad

                          Input orientation:                          
 ---------------------------------------------------------------------
 Center     Atomic      Atomic             Coordinates (Angstroms)
 Number     Number       Type             X           Y           Z
 ---------------------------------------------------------------------
      1          6           0       -1.148057    1.223269    0.000000
      2          6           0        0.056424    1.967604    0.000000
      3          6           0        1.206466    1.141642    0.000000
      4          6           0        1.190710   -0.255101    0.000000
      5          6           0       -0.023338   -0.942956    0.000000
      6          6           0       -1.172168   -0.166506    0.000000
      7         17           0       -2.748859   -1.026147    0.000000
      8          1           0       -0.078946   -2.024511    0.000000
      9          1           0        2.192059    1.613251    0.000000
     10          1           0        2.120104   -0.823664    0.000000
     11          1           0       -2.112878    1.731197    0.000000
 ---------------------------------------------------------------------
                    Distance matrix (angstroms):
                    1          2          3          4          5
     1  C    0.000000
     2  C    1.415913   0.000000
     3  C    2.355937   1.415912   0.000000
     4  C    2.766841   2.495399   1.396832   0.000000
     5  C    2.440804   2.911652   2.420324   1.395370   0.000000
     6  C    1.389985   2.462491   2.714618   2.364538   1.386609
     7  Cl   2.760876   4.102701   4.510422   4.014314   2.726790
     8  H    3.419221   3.994409   3.417134   2.177806   1.082983
     9  H    3.362806   2.164833   1.092616   2.119773   3.382629
    10  H    3.856269   3.471303   2.167294   1.089512   2.146759
    11  H    1.090353   2.182146   3.371293   3.854746   3.393710
                    6          7          8          9         10
     6  C    0.000000
     7  Cl   1.795811   0.000000
     8  H    2.155763   2.850468   0.000000
     9  H    3.805990   5.601704   4.288446   0.000000
    10  H    3.357218   4.873172   2.505565   2.437976   0.000000
    11  H    2.118068   2.829738   4.271090   4.306552   4.944234
                   11
    11  H    0.000000
 Stoichiometry    C6H4Cl(1-)
 Framework group  CS[SG(C6H4Cl)]
 Deg. of freedom    19
 Full point group                 CS      NOp   2
 Largest Abelian subgroup         CS      NOp   2
 Largest concise Abelian subgroup C1      NOp   1
                         Standard orientation:                         
 ---------------------------------------------------------------------
 Center     Atomic      Atomic             Coordinates (Angstroms)
 Number     Number       Type             X           Y           Z
 ---------------------------------------------------------------------
      1          6           0        1.256139   -0.154820    0.000000
      2          6           0        1.437486   -1.559072    0.000000
      3          6           0        0.210748   -2.266123    0.000000
      4          6           0       -1.055184   -1.675738    0.000000
      5          6           0       -1.181133   -0.286064    0.000000
      6          6           0        0.000000    0.440302    0.000000
      7         17           0       -0.132887    2.231190    0.000000
      8          1           0       -2.143494    0.210639    0.000000
      9          1           0        0.233913   -3.358493    0.000000
     10          1           0       -1.956436   -2.287933    0.000000
     11          1           0        2.116763    0.514655    0.000000
 ---------------------------------------------------------------------
 Rotational constants (GHZ):           5.8127739           1.5805349           1.2426496
 Standard basis: 6-311++G(d,p) (5D, 7F)
 There are   149 symmetry adapted cartesian basis functions of A'  symmetry.
 There are    48 symmetry adapted cartesian basis functions of A"  symmetry.
 There are   142 symmetry adapted basis functions of A'  symmetry.
 There are    48 symmetry adapted basis functions of A"  symmetry.
   190 basis functions,   305 primitive gaussians,   197 cartesian basis functions
    29 alpha electrons       29 beta electrons
       nuclear repulsion energy       302.1540091206 Hartrees.
 NAtoms=   11 NActive=   11 NUniq=   11 SFac= 1.00D+00 NAtFMM=   60 NAOKFM=F Big=F
 Integral buffers will be    131072 words long.
 Raffenetti 2 integral format.
 Two-electron integral symmetry is turned on.
 One-electron integrals computed using PRISM.
 NBasis=   190 RedAO= T EigKep=  2.24D-06  NBF=   142    48
 NBsUse=   190 1.00D-06 EigRej= -1.00D+00 NBFU=   142    48
 Initial guess from the checkpoint file:  "frequency_chks/13dichlorobenzene_anion_product_Freq.chk"
 B after Tr=     0.000000    0.000000    0.000000
         Rot=    1.000000   -0.000000   -0.000000   -0.000000 Ang=   0.00 deg.
 Initial guess orbital symmetries:
       Occupied  (A') (A') (A') (A') (A') (A') (A') (A') (A') (A')
                 (A") (A') (A') (A') (A') (A') (A') (A') (A') (A')
                 (A') (A") (A') (A") (A') (A') (A") (A") (A')
       Virtual   (A') (A') (A') (A') (A') (A") (A") (A') (A") (A')
                 (A') (A") (A') (A") (A') (A') (A") (A') (A') (A')
                 (A') (A") (A') (A") (A") (A') (A') (A') (A') (A')
                 (A') (A') (A') (A') (A") (A') (A') (A') (A') (A')
                 (A') (A') (A') (A') (A') (A") (A') (A') (A') (A")
                 (A') (A') (A") (A') (A") (A') (A') (A") (A") (A')
                 (A') (A") (A') (A') (A') (A') (A') (A') (A') (A')
                 (A") (A') (A") (A') (A') (A') (A') (A') (A') (A")
                 (A') (A") (A") (A') (A") (A') (A") (A') (A") (A')
                 (A') (A') (A') (A") (A') (A") (A') (A') (A") (A')
                 (A") (A') (A') (A') (A") (A') (A") (A') (A") (A')
                 (A") (A') (A') (A") (A') (A") (A") (A') (A') (A')
                 (A') (A') (A') (A') (A') (A') (A") (A') (A') (A')
                 (A') (A") (A") (A') (A") (A") (A") (A') (A') (A')
                 (A') (A') (A') (A') (A') (A') (A') (A') (A') (A')
                 (A') (A') (A') (A') (A') (A') (A') (A") (A') (A')
                 (A')
 Keep R1 ints in memory in symmetry-blocked form, NReq=252081161.
 Requested convergence on RMS density matrix=1.00D-08 within 128 cycles.
 Requested convergence on MAX density matrix=1.00D-06.
 Requested convergence on             energy=1.00D-06.
 No special actions if energy rises.
 SCF Done:  E(RM062X) =  -691.167270173     A.U. after    1 cycles
            NFock=  1  Conv=0.41D-08     -V/T= 2.0028
 DoSCS=F DFT=T ScalE2(SS,OS)=  1.000000  1.000000
 Range of M.O.s used for correlation:     1   190
 NBasis=   190 NAE=    29 NBE=    29 NFC=     0 NFV=     0
 NROrb=    190 NOA=    29 NOB=    29 NVA=   161 NVB=   161

 **** Warning!!: The largest alpha MO coefficient is  0.23859495D+03

 Symmetrizing basis deriv contribution to polar:
 IMax=3 JMax=2 DiffMx= 0.00D+00
 G2DrvN: will do    12 centers at a time, making    1 passes.
 Calling FoFCou, ICntrl=  3107 FMM=F I1Cent=   0 AccDes= 0.00D+00.
 End of G2Drv F.D. properties file   721 does not exist.
 End of G2Drv F.D. properties file   722 does not exist.
 End of G2Drv F.D. properties file   788 does not exist.
          IDoAtm=11111111111
          Differentiating once with respect to electric field.
                with respect to dipole field.
          Differentiating once with respect to nuclear coordinates.
 Keep R1 ints in memory in symmetry-blocked form, NReq=252086254.
          There are    36 degrees of freedom in the 1st order CPHF.  IDoFFX=6 NUNeed=     3.
     33 vectors produced by pass  0 Test12= 1.30D-14 2.78D-09 XBig12= 9.45D+01 3.62D+00.
 AX will form    33 AO Fock derivatives at one time.
     33 vectors produced by pass  1 Test12= 1.30D-14 2.78D-09 XBig12= 2.30D+01 2.21D+00.
     33 vectors produced by pass  2 Test12= 1.30D-14 2.78D-09 XBig12= 3.83D-01 1.52D-01.
     33 vectors produced by pass  3 Test12= 1.30D-14 2.78D-09 XBig12= 5.17D-03 1.08D-02.
     33 vectors produced by pass  4 Test12= 1.30D-14 2.78D-09 XBig12= 3.03D-05 6.59D-04.
     33 vectors produced by pass  5 Test12= 1.30D-14 2.78D-09 XBig12= 1.66D-07 6.58D-05.
     32 vectors produced by pass  6 Test12= 1.30D-14 2.78D-09 XBig12= 7.68D-10 4.86D-06.
     16 vectors produced by pass  7 Test12= 1.30D-14 2.78D-09 XBig12= 3.18D-12 2.41D-07.
      3 vectors produced by pass  8 Test12= 1.30D-14 2.78D-09 XBig12= 1.40D-14 1.59D-08.
 InvSVY:  IOpt=1 It=  1 EMax= 3.55D-15
 Solved reduced A of dimension   249 with    36 vectors.
 Isotropic polarizability for W=    0.000000      100.26 Bohr**3.
 End of Minotr F.D. properties file   721 does not exist.
 End of Minotr F.D. properties file   722 does not exist.
 End of Minotr F.D. properties file   788 does not exist.

 **********************************************************************

            Population analysis using the SCF Density.

 **********************************************************************

 Orbital symmetries:
       Occupied  (A') (A') (A') (A') (A') (A') (A') (A') (A') (A')
                 (A") (A') (A') (A') (A') (A') (A') (A') (A') (A')
                 (A') (A") (A') (A") (A') (A') (A") (A") (A')
       Virtual   (A') (A') (A') (A') (A') (A") (A") (A') (A") (A')
                 (A') (A") (A') (A") (A') (A') (A") (A') (A') (A')
                 (A') (A") (A') (A") (A") (A') (A') (A') (A') (A')
                 (A') (A') (A') (A') (A") (A') (A') (A') (A') (A')
                 (A') (A') (A') (A') (A') (A") (A') (A') (A') (A")
                 (A') (A') (A") (A') (A") (A') (A') (A") (A") (A')
                 (A') (A") (A') (A') (A') (A') (A') (A') (A') (A')
                 (A") (A') (A") (A') (A') (A') (A') (A') (A') (A")
                 (A') (A") (A") (A') (A") (A') (A") (A') (A") (A')
                 (A') (A') (A') (A") (A') (A") (A') (A') (A") (A')
                 (A") (A') (A') (A') (A") (A') (A") (A') (A") (A')
                 (A") (A') (A') (A") (A') (A") (A") (A') (A') (A')
                 (A') (A') (A') (A') (A') (A') (A") (A') (A') (A')
                 (A') (A") (A") (A') (A") (A") (A") (A') (A') (A')
                 (A') (A') (A') (A') (A') (A') (A') (A') (A') (A')
                 (A') (A') (A') (A') (A') (A') (A') (A") (A') (A')
                 (A')
 The electronic state is 1-A'.
 Alpha  occ. eigenvalues -- -102.52301 -10.43653 -10.38588 -10.38296 -10.36443
 Alpha  occ. eigenvalues --  -10.35882 -10.31517  -9.66557  -7.39016  -7.38435
 Alpha  occ. eigenvalues --   -7.38432  -0.82275  -0.75802  -0.66044  -0.64437
 Alpha  occ. eigenvalues --   -0.51109  -0.48614  -0.41874  -0.34980  -0.34233
 Alpha  occ. eigenvalues --   -0.31702  -0.29702  -0.28657  -0.23375  -0.23210
 Alpha  occ. eigenvalues --   -0.21862  -0.13277  -0.11836  -0.04791
 Alpha virt. eigenvalues --    0.10168   0.11614   0.12616   0.13378   0.15218
 Alpha virt. eigenvalues --    0.17283   0.18378   0.19507   0.20141   0.20402
 Alpha virt. eigenvalues --    0.21152   0.21443   0.22742   0.23579   0.23985
 Alpha virt. eigenvalues --    0.24748   0.25702   0.26024   0.26825   0.27227
 Alpha virt. eigenvalues --    0.27472   0.27620   0.28796   0.28984   0.29162
 Alpha virt. eigenvalues --    0.30432   0.31229   0.31388   0.34599   0.34972
 Alpha virt. eigenvalues --    0.35738   0.36424   0.38741   0.39232   0.39542
 Alpha virt. eigenvalues --    0.40422   0.41631   0.44853   0.45343   0.46459
 Alpha virt. eigenvalues --    0.50506   0.52600   0.53807   0.54553   0.61522
 Alpha virt. eigenvalues --    0.62061   0.63926   0.67738   0.69354   0.72955
 Alpha virt. eigenvalues --    0.72955   0.74637   0.77041   0.77469   0.77759
 Alpha virt. eigenvalues --    0.78553   0.80962   0.81525   0.82392   0.85528
 Alpha virt. eigenvalues --    0.86746   0.88916   0.91057   0.93279   0.94454
 Alpha virt. eigenvalues --    0.97821   0.98880   1.02840   1.03899   1.04512
 Alpha virt. eigenvalues --    1.05369   1.06101   1.08679   1.09058   1.10218
 Alpha virt. eigenvalues --    1.11126   1.14314   1.15743   1.17287   1.23187
 Alpha virt. eigenvalues --    1.23424   1.23939   1.32304   1.33672   1.36029
 Alpha virt. eigenvalues --    1.38641   1.40506   1.41856   1.52536   1.60546
 Alpha virt. eigenvalues --    1.68243   1.72577   1.73193   1.77187   1.79896
 Alpha virt. eigenvalues --    1.81829   1.85589   1.87683   1.88422   1.90036
 Alpha virt. eigenvalues --    1.94930   1.97230   2.06723   2.10585   2.11859
 Alpha virt. eigenvalues --    2.13119   2.13854   2.14303   2.18460   2.21474
 Alpha virt. eigenvalues --    2.23252   2.23746   2.26183   2.40400   2.42995
 Alpha virt. eigenvalues --    2.47533   2.53760   2.54409   2.59609   2.65017
 Alpha virt. eigenvalues --    2.69204   2.70242   2.71790   2.73568   2.85448
 Alpha virt. eigenvalues --    2.87869   2.88913   2.90933   2.92237   2.93806
 Alpha virt. eigenvalues --    2.96876   3.01336   3.03200   3.06964   3.11538
 Alpha virt. eigenvalues --    3.13712   3.30536   3.30634   3.36745   3.41224
 Alpha virt. eigenvalues --    3.57659   3.58932   3.70288   3.75165   3.92603
 Alpha virt. eigenvalues --    4.02752   4.21298   4.32522   4.33139   4.97622
 Alpha virt. eigenvalues --   10.10326  23.75901  24.14569  24.19299  24.30513
 Alpha virt. eigenvalues --   24.31747  24.39043  26.07842  26.36997  26.82630
 Alpha virt. eigenvalues --  216.20365
          Condensed to atoms (all electrons):
               1          2          3          4          5          6
     1  C   17.621483   0.808348  -0.452830  -0.279972  -7.667018  -3.409544
     2  C    0.808348   6.881796   0.068844   0.593443  -2.620659   0.077317
     3  C   -0.452830   0.068844   7.113344  -0.862176   2.833842  -2.370641
     4  C   -0.279972   0.593443  -0.862176   7.502922  -1.845025   0.704340
     5  C   -7.667018  -2.620659   2.833842  -1.845025  19.725875  -4.364665
     6  C   -3.409544   0.077317  -2.370641   0.704340  -4.364665  15.829025
     7  Cl  -0.166485   0.244060  -0.024514   0.168974   0.339139  -1.113136
     8  H   -0.172238  -0.046891   0.092570  -0.067168   0.725608  -0.223154
     9  H   -0.010384   0.013859   0.391651  -0.177819   0.034743   0.001901
    10  H    0.082932   0.054692  -0.090826   0.344395  -0.217452   0.060157
    11  H    0.651042   0.072566  -0.053300   0.046958  -0.166139  -0.336801
               7          8          9         10         11
     1  C   -0.166485  -0.172238  -0.010384   0.082932   0.651042
     2  C    0.244060  -0.046891   0.013859   0.054692   0.072566
     3  C   -0.024514   0.092570   0.391651  -0.090826  -0.053300
     4  C    0.168974  -0.067168  -0.177819   0.344395   0.046958
     5  C    0.339139   0.725608   0.034743  -0.217452  -0.166139
     6  C   -1.113136  -0.223154   0.001901   0.060157  -0.336801
     7  Cl  17.436809   0.013325   0.000883   0.000072   0.025740
     8  H    0.013325   0.574248   0.001850  -0.022735  -0.005613
     9  H    0.000883   0.001850   0.642070  -0.000574  -0.003083
    10  H    0.000072  -0.022735  -0.000574   0.647706   0.006334
    11  H    0.025740  -0.005613  -0.003083   0.006334   0.647234
 Mulliken charges:
               1
     1  C   -1.005334
     2  C   -0.147375
     3  C   -0.645966
     4  C   -0.128872
     5  C   -0.778249
     6  C    1.145202
     7  Cl   0.075132
     8  H    0.130198
     9  H    0.104903
    10  H    0.135299
    11  H    0.115061
 Sum of Mulliken charges =  -1.00000
 Mulliken charges with hydrogens summed into heavy atoms:
               1
     1  C   -0.890273
     2  C   -0.147375
     3  C   -0.541064
     4  C    0.006427
     5  C   -0.648051
     6  C    1.145202
     7  Cl   0.075132
 APT charges:
               1
     1  C   -0.151584
     2  C   -0.482556
     3  C   -0.035862
     4  C    0.052039
     5  C   -0.285303
     6  C    0.595328
     7  Cl  -0.580053
     8  H    0.031593
     9  H   -0.062704
    10  H   -0.056114
    11  H   -0.024783
 Sum of APT charges =  -1.00000
 APT charges with hydrogens summed into heavy atoms:
               1
     1  C   -0.176368
     2  C   -0.482556
     3  C   -0.098566
     4  C   -0.004075
     5  C   -0.253710
     6  C    0.595328
     7  Cl  -0.580053
 Electronic spatial extent (au):  <R**2>=            912.1412
 Charge=             -1.0000 electrons
 Dipole moment (field-independent basis, Debye):
    X=             -4.8211    Y=              3.4910    Z=              0.0000  Tot=              5.9523
 Quadrupole moment (field-independent basis, Debye-Ang):
   XX=            -63.9268   YY=            -69.8534   ZZ=            -55.8945
   XY=             10.7440   XZ=              0.0000   YZ=              0.0000
 Traceless Quadrupole moment (field-independent basis, Debye-Ang):
   XX=             -0.7019   YY=             -6.6285   ZZ=              7.3304
   XY=             10.7440   XZ=              0.0000   YZ=              0.0000
 Octapole moment (field-independent basis, Debye-Ang**2):
  XXX=            -40.1903  YYY=             32.2077  ZZZ=              0.0000  XYY=            -23.3347
  XXY=             33.2051  XXZ=              0.0000  XZZ=             -3.8749  YZZ=             11.7158
  YYZ=              0.0000  XYZ=              0.0000
 Hexadecapole moment (field-independent basis, Debye-Ang**3):
 XXXX=           -437.0101 YYYY=           -997.5750 ZZZZ=            -76.4662 XXXY=             93.3941
 XXXZ=              0.0000 YYYX=             74.1472 YYYZ=              0.0000 ZZZX=              0.0000
 ZZZY=              0.0000 XXYY=           -272.5615 XXZZ=            -84.2860 YYZZ=           -182.9865
 XXYZ=              0.0000 YYXZ=              0.0000 ZZXY=             12.1619
 N-N= 3.021540091206D+02 E-N=-2.244602554271D+03  KE= 6.892626018247D+02
 Symmetry A'   KE= 6.372634744083D+02
 Symmetry A"   KE= 5.199912741640D+01
  Exact polarizability: 112.130  -9.401 127.690   0.000   0.000  60.964
 Approx polarizability: 134.777  -6.279 149.795  -0.000  -0.000  74.768
 Calling FoFJK, ICntrl=    100127 FMM=F ISym2X=1 I1Cent= 0 IOpClX= 0 NMat=1 NMatS=1 NMatT=0.
 Full mass-weighted force constant matrix:
 Low frequencies ---  -20.8231   -4.0531    0.0019    0.0022    0.0025   19.5497
 Low frequencies ---  173.5051  290.4158  393.6039
 Diagonal vibrational polarizability:
        1.5667743       9.8186495       4.4337739
 Harmonic frequencies (cm**-1), IR intensities (KM/Mole), Raman scattering
 activities (A**4/AMU), depolarization ratios for plane and unpolarized
 incident light, reduced masses (AMU), force constants (mDyne/A),
 and normal coordinates:
                      1                      2                      3
                     A"                     A'                     A"
 Frequencies --    173.4998               290.4155               393.6021
 Red. masses --      4.7358                 6.3300                 3.1761
 Frc consts  --      0.0840                 0.3146                 0.2899
 IR Inten    --      0.2714                 1.4897                 8.1679
  Atom  AN      X      Y      Z        X      Y      Z        X      Y      Z
     1   6     0.00  -0.00  -0.27    -0.25   0.13  -0.00    -0.00  -0.00   0.20
     2   6    -0.00  -0.00   0.05     0.02   0.20   0.00    -0.00  -0.00  -0.21
     3   6    -0.00  -0.00   0.28     0.12   0.03   0.00     0.00  -0.00  -0.03
     4   6     0.00  -0.00   0.01     0.03  -0.15   0.00     0.00  -0.00   0.24
     5   6     0.00  -0.00  -0.25    -0.24  -0.15  -0.00     0.00  -0.00  -0.21
     6   6     0.00  -0.00  -0.25    -0.30  -0.01  -0.00     0.00  -0.00  -0.08
     7  17    -0.00   0.00   0.15     0.22  -0.01   0.00    -0.00   0.00   0.01
     8   1     0.00   0.00  -0.31    -0.32  -0.32  -0.00     0.00  -0.00  -0.37
     9   1    -0.00  -0.00   0.65     0.26   0.04   0.00     0.00  -0.00  -0.05
    10   1     0.00   0.00   0.07     0.13  -0.31   0.00    -0.00  -0.00   0.57
    11   1     0.00  -0.00  -0.42    -0.37   0.30   0.00     0.00  -0.00   0.58
                      4                      5                      6
                     A'                     A"                     A'
 Frequencies --    396.5246               456.1421               599.2751
 Red. masses --     12.3473                 4.3299                 7.5780
 Frc consts  --      1.1438                 0.5308                 1.6035
 IR Inten    --     11.7523                 1.1257                 7.7743
  Atom  AN      X      Y      Z        X      Y      Z        X      Y      Z
     1   6    -0.07  -0.16  -0.00     0.00   0.00   0.02    -0.20  -0.29   0.00
     2   6    -0.08  -0.23   0.00     0.00   0.00  -0.29     0.33  -0.30  -0.00
     3   6     0.03  -0.37   0.00    -0.00   0.00   0.23     0.16   0.03  -0.00
     4   6     0.08  -0.28  -0.00     0.00   0.00  -0.10     0.22   0.27   0.00
     5   6     0.07  -0.22   0.00    -0.00   0.00  -0.08    -0.23   0.22  -0.00
     6   6    -0.02   0.01   0.00    -0.00  -0.00   0.38    -0.15   0.01  -0.00
     7  17    -0.01   0.46  -0.00     0.00  -0.00  -0.03    -0.03   0.02   0.00
     8   1    -0.02  -0.40   0.00    -0.00   0.00  -0.51    -0.32   0.05   0.00
     9   1     0.08  -0.37  -0.00    -0.00   0.00   0.44    -0.26   0.02   0.00
    10   1     0.02  -0.19  -0.00     0.00   0.00  -0.42     0.33   0.11   0.00
    11   1     0.02  -0.29  -0.00    -0.00   0.00  -0.27    -0.30  -0.16   0.00
                      7                      8                      9
                     A'                     A"                     A"
 Frequencies --    688.4437               711.8081               760.0834
 Red. masses --      8.0890                 2.8449                 1.4604
 Frc consts  --      2.2588                 0.8493                 0.4971
 IR Inten    --     53.2471                14.2269                38.7909
  Atom  AN      X      Y      Z        X      Y      Z        X      Y      Z
     1   6    -0.28   0.05  -0.00    -0.00  -0.00  -0.14    -0.00  -0.00  -0.04
     2   6    -0.28   0.04   0.00     0.00  -0.00   0.17    -0.00  -0.00   0.04
     3   6     0.04  -0.33  -0.00     0.00   0.00  -0.14     0.00   0.00  -0.06
     4   6     0.29   0.10   0.00    -0.00   0.00   0.20    -0.00  -0.00  -0.06
     5   6     0.25   0.09  -0.00    -0.00   0.00  -0.14     0.00  -0.00  -0.12
     6   6    -0.04   0.41   0.00     0.00  -0.00   0.19     0.00   0.00   0.12
     7  17     0.01  -0.12   0.00     0.00  -0.00   0.00    -0.00   0.00  -0.01
     8   1     0.07  -0.24  -0.00    -0.00   0.00  -0.60    -0.00  -0.00   0.63
     9   1     0.02  -0.32  -0.00     0.00   0.00  -0.51     0.00   0.00   0.39
    10   1     0.07   0.42  -0.00    -0.00  -0.00  -0.03    -0.00  -0.00   0.64
    11   1    -0.11  -0.16  -0.00    -0.00   0.00  -0.47    -0.00   0.00   0.05
                     10                     11                     12
                     A"                     A"                     A"
 Frequencies --    862.8812               915.8899               965.9122
 Red. masses --      1.3100                 1.2933                 1.3545
 Frc consts  --      0.5747                 0.6392                 0.7446
 IR Inten    --      0.0349                 1.9229                 0.0424
  Atom  AN      X      Y      Z        X      Y      Z        X      Y      Z
     1   6     0.00   0.00   0.09     0.00   0.00  -0.13     0.00   0.00   0.05
     2   6    -0.00   0.00  -0.03    -0.00   0.00   0.00    -0.00   0.00  -0.00
     3   6    -0.00  -0.00   0.08    -0.00  -0.00   0.04    -0.00  -0.00  -0.13
     4   6     0.00   0.00   0.04     0.00   0.00   0.06     0.00   0.00   0.11
     5   6    -0.00   0.00  -0.11    -0.00   0.00  -0.05    -0.00   0.00  -0.02
     6   6    -0.00  -0.00  -0.02    -0.00  -0.00   0.04    -0.00  -0.00  -0.02
     7  17     0.00  -0.00   0.00     0.00  -0.00  -0.00     0.00   0.00  -0.00
     8   1    -0.00   0.00   0.63    -0.00   0.00   0.33    -0.00   0.00   0.18
     9   1    -0.00  -0.00  -0.51    -0.00  -0.00  -0.16    -0.00  -0.00   0.74
    10   1     0.00   0.00  -0.25     0.00   0.00  -0.48     0.00  -0.00  -0.59
    11   1     0.00   0.00  -0.50     0.00   0.00   0.78     0.00   0.00  -0.20
                     13                     14                     15
                     A'                     A'                     A'
 Frequencies --    973.1084              1013.0225              1083.8931
 Red. masses --      8.0159                 4.5928                 2.0521
 Frc consts  --      4.4722                 2.7769                 1.4204
 IR Inten    --     79.9438                 0.3511                34.9794
  Atom  AN      X      Y      Z        X      Y      Z        X      Y      Z
     1   6    -0.19  -0.05   0.00    -0.15  -0.22   0.00     0.16   0.04  -0.00
     2   6     0.38  -0.14  -0.00    -0.20   0.03  -0.00    -0.03  -0.07   0.00
     3   6    -0.05   0.15   0.00    -0.00   0.38   0.00    -0.04   0.04   0.00
     4   6    -0.34  -0.19   0.00     0.13   0.02   0.00     0.03  -0.03  -0.00
     5   6     0.26  -0.11  -0.00     0.17  -0.14  -0.00    -0.13  -0.02   0.00
     6   6    -0.04   0.41  -0.00     0.03  -0.05  -0.00    -0.01   0.20   0.00
     7  17     0.00  -0.03   0.00    -0.00   0.02   0.00     0.00  -0.02  -0.00
     8   1     0.26  -0.07   0.00     0.10  -0.31   0.00    -0.38  -0.50  -0.00
     9   1     0.04   0.15   0.00    -0.06   0.38  -0.00    -0.21   0.03  -0.00
    10   1    -0.48   0.02  -0.00     0.39  -0.32  -0.00     0.28  -0.40   0.00
    11   1    -0.19  -0.03  -0.00    -0.01  -0.41  -0.00     0.40  -0.26   0.00
                     16                     17                     18
                     A'                     A'                     A'
 Frequencies --   1105.1706              1178.4544              1250.2005
 Red. masses --      1.6059                 1.2092                 6.1386
 Frc consts  --      1.1557                 0.9894                 5.6530
 IR Inten    --      5.5408                 0.0404                28.8316
  Atom  AN      X      Y      Z        X      Y      Z        X      Y      Z
     1   6    -0.02  -0.09   0.00     0.02  -0.07   0.00     0.13  -0.28  -0.00
     2   6    -0.05   0.05  -0.00    -0.03   0.03  -0.00     0.18   0.38   0.00
     3   6     0.08  -0.02   0.00     0.08   0.01   0.00    -0.26  -0.07  -0.00
     4   6    -0.05  -0.10   0.00    -0.05   0.03   0.00     0.12  -0.15  -0.00
     5   6    -0.06   0.12  -0.00    -0.04  -0.01  -0.00     0.10   0.15   0.00
     6   6     0.02   0.06  -0.00     0.02   0.01  -0.00    -0.23  -0.03   0.00
     7  17    -0.00  -0.01   0.00    -0.00  -0.00   0.00    -0.00   0.00  -0.00
     8   1     0.18   0.62   0.00    -0.23  -0.35   0.00    -0.09  -0.22  -0.00
     9   1     0.42  -0.01  -0.00     0.56   0.03  -0.00    -0.45  -0.07   0.00
    10   1     0.18  -0.45  -0.00    -0.37   0.49  -0.00    -0.14   0.25   0.00
    11   1     0.16  -0.31  -0.00     0.18  -0.28  -0.00     0.21  -0.37   0.00
                     19                     20                     21
                     A'                     A'                     A'
 Frequencies --   1318.3087              1399.2598              1444.5477
 Red. masses --      1.2659                 2.5066                 1.9320
 Frc consts  --      1.2963                 2.8916                 2.3753
 IR Inten    --      3.5756                 4.7592                30.1751
  Atom  AN      X      Y      Z        X      Y      Z        X      Y      Z
     1   6     0.04  -0.07   0.00    -0.13  -0.04   0.00    -0.10   0.12  -0.00
     2   6    -0.02  -0.01  -0.00     0.04   0.15  -0.00     0.10  -0.02   0.00
     3   6    -0.06  -0.00   0.00     0.11  -0.08   0.00    -0.15  -0.05  -0.00
     4   6    -0.01  -0.02   0.00    -0.14   0.04   0.00    -0.01   0.09  -0.00
     5   6     0.03   0.09  -0.00    -0.02   0.05  -0.00     0.07   0.03   0.00
     6   6     0.04   0.01  -0.00     0.23  -0.04  -0.00    -0.01  -0.10   0.00
     7  17    -0.00  -0.00   0.00    -0.00   0.00   0.00     0.00   0.00  -0.00
     8   1    -0.19  -0.33   0.00    -0.31  -0.50   0.00    -0.04  -0.23  -0.00
     9   1     0.45   0.02  -0.00    -0.60  -0.12  -0.00     0.58  -0.02   0.00
    10   1     0.13  -0.22  -0.00     0.09  -0.34  -0.00     0.30  -0.35   0.00
    11   1    -0.46   0.59  -0.00    -0.07  -0.13  -0.00     0.32  -0.46   0.00
                     22                     23                     24
                     A'                     A'                     A'
 Frequencies --   1571.3316              1596.6827              3079.6411
 Red. masses --      5.2667                 6.2461                 1.0842
 Frc consts  --      7.6618                 9.3821                 6.0586
 IR Inten    --     34.9976                 4.8827                64.6772
  Atom  AN      X      Y      Z        X      Y      Z        X      Y      Z
     1   6     0.14  -0.19   0.00    -0.14  -0.04   0.00     0.00  -0.00   0.00
     2   6     0.03   0.15  -0.00     0.12   0.11   0.00    -0.00  -0.00   0.00
     3   6     0.01  -0.14   0.00    -0.30   0.01  -0.00     0.01  -0.08  -0.00
     4   6    -0.14   0.38   0.00     0.23  -0.05   0.00     0.01   0.01   0.00
     5   6    -0.00  -0.32  -0.00    -0.28  -0.21   0.00    -0.00   0.00  -0.00
     6   6    -0.10   0.12  -0.00     0.38   0.12   0.00    -0.00   0.00  -0.00
     7  17     0.00   0.00   0.00    -0.00  -0.00  -0.00     0.00  -0.00   0.00
     8   1     0.31   0.25   0.00     0.03   0.47   0.00     0.01  -0.01   0.00
     9   1     0.24  -0.14  -0.00     0.31   0.06   0.00    -0.04   0.97   0.00
    10   1     0.40  -0.39  -0.00    -0.06   0.40  -0.00    -0.18  -0.13  -0.00
    11   1    -0.13   0.21  -0.00    -0.19   0.02  -0.00     0.00   0.00  -0.00
                     25                     26                     27
                     A'                     A'                     A'
 Frequencies --   3110.7829              3133.4706              3214.8574
 Red. masses --      1.0873                 1.0906                 1.0931
 Frc consts  --      6.1992                 6.3092                 6.6564
 IR Inten    --     52.1855               102.0892                15.2249
  Atom  AN      X      Y      Z        X      Y      Z        X      Y      Z
     1   6    -0.07  -0.05   0.00     0.00   0.00   0.00     0.00  -0.00   0.00
     2   6     0.00   0.00  -0.00    -0.00   0.00  -0.00    -0.00   0.00   0.00
     3   6     0.00  -0.00  -0.00     0.00  -0.02  -0.00     0.00  -0.00  -0.00
     4   6    -0.00  -0.00   0.00    -0.07  -0.05   0.00    -0.01  -0.01   0.00
     5   6     0.00   0.00  -0.00     0.01  -0.00  -0.00    -0.08   0.04  -0.00
     6   6     0.00  -0.00  -0.00     0.00   0.00  -0.00     0.00   0.00   0.00
     7  17    -0.00   0.00   0.00    -0.00  -0.00  -0.00    -0.00  -0.00  -0.00
     8   1     0.00  -0.00   0.00    -0.12   0.06   0.00     0.88  -0.45  -0.00
     9   1    -0.00   0.01   0.00    -0.01   0.21   0.00    -0.00   0.01   0.00
    10   1     0.05   0.03  -0.00     0.79   0.54  -0.00     0.10   0.07  -0.00
    11   1     0.80   0.59  -0.00    -0.05  -0.04  -0.00    -0.01  -0.01   0.00

 -------------------
 - Thermochemistry -
 -------------------
 Temperature   298.150 Kelvin.  Pressure   1.00000 Atm.
 Atom     1 has atomic number  6 and mass  12.00000
 Atom     2 has atomic number  6 and mass  12.00000
 Atom     3 has atomic number  6 and mass  12.00000
 Atom     4 has atomic number  6 and mass  12.00000
 Atom     5 has atomic number  6 and mass  12.00000
 Atom     6 has atomic number  6 and mass  12.00000
 Atom     7 has atomic number 17 and mass  34.96885
 Atom     8 has atomic number  1 and mass   1.00783
 Atom     9 has atomic number  1 and mass   1.00783
 Atom    10 has atomic number  1 and mass   1.00783
 Atom    11 has atomic number  1 and mass   1.00783
 Molecular mass:   111.00015 amu.
 Principal axes and moments of inertia in atomic units:
                           1         2         3
     Eigenvalues --   310.478481141.854711452.33319
           X           -0.06799   0.99769   0.00000
           Y            0.99769   0.06799   0.00000
           Z           -0.00000   0.00000   1.00000
 This molecule is an asymmetric top.
 Rotational symmetry number  1.
 Rotational temperatures (Kelvin)      0.27897     0.07585     0.05964
 Rotational constants (GHZ):           5.81277     1.58053     1.24265
 Zero-point vibrational energy     201494.3 (Joules/Mol)
                                   48.15828 (Kcal/Mol)
 Warning -- explicit consideration of   6 degrees of freedom as
           vibrations may cause significant error
 Vibrational temperatures:    249.63   417.84   566.31   570.51   656.29
          (Kelvin)            862.22   990.52  1024.13  1093.59  1241.49
                             1317.76  1389.73  1400.09  1457.51  1559.48
                             1590.09  1695.53  1798.76  1896.75  2013.22
                             2078.38  2260.80  2297.27  4430.92  4475.72
                             4508.37  4625.46
 
 Zero-point correction=                           0.076745 (Hartree/Particle)
 Thermal correction to Energy=                    0.082322
 Thermal correction to Enthalpy=                  0.083266
 Thermal correction to Gibbs Free Energy=         0.046894
 Sum of electronic and zero-point Energies=           -691.090525
 Sum of electronic and thermal Energies=              -691.084949
 Sum of electronic and thermal Enthalpies=            -691.084004
 Sum of electronic and thermal Free Energies=         -691.120376
 
                     E (Thermal)             CV                S
                      KCal/Mol        Cal/Mol-Kelvin    Cal/Mol-Kelvin
 Total                   51.658             20.877             76.551
 Electronic               0.000              0.000              0.000
 Translational            0.889              2.981             40.029
 Rotational               0.889              2.981             27.734
 Vibrational             49.880             14.915              8.788
 Vibration     1          0.627              1.875              2.397
 Vibration     2          0.686              1.692              1.472
 Vibration     3          0.761              1.484              0.986
 Vibration     4          0.763              1.478              0.976
 Vibration     5          0.814              1.347              0.777
 Vibration     6          0.957              1.033              0.451
                       Q            Log10(Q)             Ln(Q)
 Total Bot       0.269367D-21        -21.569655        -49.665967
 Total V=0       0.537791D+14         13.730614         31.615907
 Vib (Bot)       0.228142D-34        -34.641794        -79.765679
 Vib (Bot)    1  0.116019D+01          0.064531          0.148587
 Vib (Bot)    2  0.658332D+00         -0.181555         -0.418046
 Vib (Bot)    3  0.454944D+00         -0.342042         -0.787582
 Vib (Bot)    4  0.450636D+00         -0.346174         -0.797095
 Vib (Bot)    5  0.374071D+00         -0.427046         -0.983310
 Vib (Bot)    6  0.249353D+00         -0.603186         -1.388887
 Vib (V=0)       0.455486D+01          0.658475          1.516194
 Vib (V=0)    1  0.176335D+01          0.246338          0.567215
 Vib (V=0)    2  0.132668D+01          0.122766          0.282680
 Vib (V=0)    3  0.117600D+01          0.070407          0.162117
 Vib (V=0)    4  0.117311D+01          0.069338          0.159656
 Vib (V=0)    5  0.112444D+01          0.050937          0.117288
 Vib (V=0)    6  0.105873D+01          0.024784          0.057068
 Electronic      0.100000D+01          0.000000          0.000000
 Translational   0.459663D+08          7.662439         17.643418
 Rotational      0.256862D+06          5.409700         12.456294
 ***** Axes restored to original set *****
 -------------------------------------------------------------------
 Center     Atomic                   Forces (Hartrees/Bohr)
 Number     Number              X              Y              Z
 -------------------------------------------------------------------
      1        6          -0.000026660    0.000054171   -0.000000000
      2        6           0.000046258   -0.000202806   -0.000000000
      3        6          -0.000061531    0.000198808   -0.000000000
      4        6          -0.000028351   -0.000103366   -0.000000000
      5        6           0.000019716    0.000128364   -0.000000000
      6        6           0.000159522    0.000102407   -0.000000000
      7       17          -0.000112428   -0.000097689   -0.000000000
      8        1           0.000000246   -0.000030258   -0.000000000
      9        1          -0.000024146   -0.000006808   -0.000000000
     10        1           0.000003808   -0.000052551   -0.000000000
     11        1           0.000023566    0.000009728   -0.000000000
 -------------------------------------------------------------------
 Cartesian Forces:  Max     0.000202806 RMS     0.000074196
 FormGI is forming the generalized inverse of G from B-inverse, IUseBI=4.

 GradGradGradGradGradGradGradGradGradGradGradGradGradGradGradGradGradGrad
 Berny optimization.
 Internal  Forces:  Max     0.000145559 RMS     0.000044334
 Search for a local minimum.
 Step number   1 out of a maximum of    2
 All quantities printed in internal units (Hartrees-Bohrs-Radians)
 Second derivative matrix not updated -- analytic derivatives used.
 ITU=  0
     Eigenvalues ---    0.01347   0.01561   0.02163   0.02651   0.02828
     Eigenvalues ---    0.02949   0.03148   0.03524   0.10452   0.11327
     Eigenvalues ---    0.11914   0.12271   0.12880   0.17767   0.19363
     Eigenvalues ---    0.19966   0.24001   0.26215   0.33184   0.33895
     Eigenvalues ---    0.34797   0.36498   0.38251   0.39985   0.45512
     Eigenvalues ---    0.45961   0.50418
 Angle between quadratic step and forces=  20.16 degrees.
 Linear search not attempted -- first point.
 Iteration  1 RMS(Cart)=  0.00034071 RMS(Int)=  0.00000008
 Iteration  2 RMS(Cart)=  0.00000012 RMS(Int)=  0.00000001
 ClnCor:  largest displacement from symmetrization is 1.14D-11 for atom     8.
 Variable       Old X    -DE/DX   Delta X   Delta X   Delta X     New X
                                 (Linear)    (Quad)   (Total)
    R1        2.67569  -0.00006   0.00000  -0.00013  -0.00013   2.67556
    R2        2.62669  -0.00003   0.00000  -0.00020  -0.00020   2.62649
    R3        2.06047  -0.00002   0.00000  -0.00008  -0.00008   2.06039
    R4        2.67569  -0.00012   0.00000  -0.00045  -0.00045   2.67523
    R5        2.63963   0.00008   0.00000   0.00028   0.00028   2.63991
    R6        2.06474  -0.00002   0.00000  -0.00008  -0.00008   2.06466
    R7        2.63687  -0.00008   0.00000  -0.00021  -0.00021   2.63665
    R8        2.05888   0.00003   0.00000   0.00008   0.00008   2.05896
    R9        2.62031  -0.00003   0.00000  -0.00006  -0.00006   2.62025
   R10        2.04654   0.00003   0.00000   0.00009   0.00009   2.04663
   R11        3.39359   0.00015   0.00000   0.00100   0.00100   3.39459
    A1        2.14167  -0.00006   0.00000  -0.00055  -0.00055   2.14113
    A2        2.10348   0.00001   0.00000   0.00008   0.00008   2.10356
    A3        2.03803   0.00005   0.00000   0.00047   0.00047   2.03850
    A4        1.96523   0.00010   0.00000   0.00063   0.00063   1.96586
    A5        2.18235  -0.00004   0.00000  -0.00021  -0.00021   2.18215
    A6        2.07245   0.00001   0.00000   0.00008   0.00008   2.07253
    A7        2.02838   0.00002   0.00000   0.00013   0.00013   2.02850
    A8        2.09756  -0.00005   0.00000  -0.00030  -0.00030   2.09726
    A9        2.10854   0.00007   0.00000   0.00053   0.00053   2.10906
   A10        2.07709  -0.00002   0.00000  -0.00023  -0.00023   2.07686
   A11        2.03177   0.00005   0.00000   0.00028   0.00028   2.03205
   A12        2.13765  -0.00003   0.00000  -0.00013  -0.00013   2.13752
   A13        2.11377  -0.00002   0.00000  -0.00015  -0.00015   2.11362
   A14        2.14779   0.00000   0.00000   0.00014   0.00014   2.14793
   A15        2.08731   0.00006   0.00000   0.00030   0.00030   2.08761
   A16        2.04809  -0.00006   0.00000  -0.00044  -0.00044   2.04764
    D1        0.00000   0.00000   0.00000   0.00000   0.00000   0.00000
    D2        3.14159  -0.00000   0.00000   0.00000   0.00000   3.14159
    D3        0.00000  -0.00000   0.00000   0.00000   0.00000   0.00000
    D4        3.14159   0.00000   0.00000   0.00000   0.00000   3.14159
    D5        3.14159  -0.00000   0.00000   0.00000   0.00000   3.14159
    D6        0.00000  -0.00000   0.00000   0.00000   0.00000   0.00000
    D7        0.00000  -0.00000   0.00000  -0.00000   0.00000   0.00000
    D8        3.14159  -0.00000   0.00000  -0.00000   0.00000   3.14159
    D9        0.00000   0.00000   0.00000   0.00000   0.00000   0.00000
   D10        3.14159  -0.00000   0.00000   0.00000   0.00000   3.14159
   D11        3.14159   0.00000   0.00000   0.00000   0.00000   3.14159
   D12        0.00000   0.00000   0.00000   0.00000   0.00000   0.00000
   D13        0.00000   0.00000   0.00000   0.00000   0.00000   0.00000
   D14        3.14159  -0.00000   0.00000   0.00000   0.00000   3.14159
   D15        3.14159   0.00000   0.00000  -0.00000   0.00000   3.14159
   D16        0.00000  -0.00000   0.00000  -0.00000   0.00000   0.00000
   D17        0.00000   0.00000   0.00000  -0.00000   0.00000   0.00000
   D18        3.14159  -0.00000   0.00000  -0.00000   0.00000   3.14159
   D19        3.14159   0.00000   0.00000  -0.00000   0.00000   3.14159
   D20        0.00000   0.00000   0.00000  -0.00000   0.00000   0.00000
         Item               Value     Threshold  Converged?
 Maximum Force            0.000146     0.000450     YES
 RMS     Force            0.000044     0.000300     YES
 Maximum Displacement     0.001414     0.001800     YES
 RMS     Displacement     0.000341     0.001200     YES
 Predicted change in Energy=-2.575036D-07
 Optimization completed.
    -- Stationary point found.
                           ----------------------------
                           !   Optimized Parameters   !
                           ! (Angstroms and Degrees)  !
 --------------------------                            --------------------------
 ! Name  Definition              Value          Derivative Info.                !
 --------------------------------------------------------------------------------
 ! R1    R(1,2)                  1.4159         -DE/DX =   -0.0001              !
 ! R2    R(1,6)                  1.39           -DE/DX =    0.0                 !
 ! R3    R(1,11)                 1.0904         -DE/DX =    0.0                 !
 ! R4    R(2,3)                  1.4159         -DE/DX =   -0.0001              !
 ! R5    R(3,4)                  1.3968         -DE/DX =    0.0001              !
 ! R6    R(3,9)                  1.0926         -DE/DX =    0.0                 !
 ! R7    R(4,5)                  1.3954         -DE/DX =   -0.0001              !
 ! R8    R(4,10)                 1.0895         -DE/DX =    0.0                 !
 ! R9    R(5,6)                  1.3866         -DE/DX =    0.0                 !
 ! R10   R(5,8)                  1.083          -DE/DX =    0.0                 !
 ! R11   R(6,7)                  1.7958         -DE/DX =    0.0001              !
 ! A1    A(2,1,6)              122.7088         -DE/DX =   -0.0001              !
 ! A2    A(2,1,11)             120.5207         -DE/DX =    0.0                 !
 ! A3    A(6,1,11)             116.7706         -DE/DX =    0.0001              !
 ! A4    A(1,2,3)              112.5992         -DE/DX =    0.0001              !
 ! A5    A(2,3,4)              125.0397         -DE/DX =    0.0                 !
 ! A6    A(2,3,9)              118.7428         -DE/DX =    0.0                 !
 ! A7    A(4,3,9)              116.2175         -DE/DX =    0.0                 !
 ! A8    A(3,4,5)              120.1813         -DE/DX =    0.0                 !
 ! A9    A(3,4,10)             120.8102         -DE/DX =    0.0001              !
 ! A10   A(5,4,10)             119.0085         -DE/DX =    0.0                 !
 ! A11   A(4,5,6)              116.4117         -DE/DX =    0.0001              !
 ! A12   A(4,5,8)              122.4783         -DE/DX =    0.0                 !
 ! A13   A(6,5,8)              121.11           -DE/DX =    0.0                 !
 ! A14   A(1,6,5)              123.0593         -DE/DX =    0.0                 !
 ! A15   A(1,6,7)              119.5939         -DE/DX =    0.0001              !
 ! A16   A(5,6,7)              117.3468         -DE/DX =   -0.0001              !
 ! D1    D(6,1,2,3)              0.0            -DE/DX =    0.0                 !
 ! D2    D(11,1,2,3)           180.0            -DE/DX =    0.0                 !
 ! D3    D(2,1,6,5)              0.0            -DE/DX =    0.0                 !
 ! D4    D(2,1,6,7)            180.0            -DE/DX =    0.0                 !
 ! D5    D(11,1,6,5)           180.0            -DE/DX =    0.0                 !
 ! D6    D(11,1,6,7)             0.0            -DE/DX =    0.0                 !
 ! D7    D(1,2,3,4)              0.0            -DE/DX =    0.0                 !
 ! D8    D(1,2,3,9)            180.0            -DE/DX =    0.0                 !
 ! D9    D(2,3,4,5)              0.0            -DE/DX =    0.0                 !
 ! D10   D(2,3,4,10)           180.0            -DE/DX =    0.0                 !
 ! D11   D(9,3,4,5)            180.0            -DE/DX =    0.0                 !
 ! D12   D(9,3,4,10)             0.0            -DE/DX =    0.0                 !
 ! D13   D(3,4,5,6)              0.0            -DE/DX =    0.0                 !
 ! D14   D(3,4,5,8)            180.0            -DE/DX =    0.0                 !
 ! D15   D(10,4,5,6)           180.0            -DE/DX =    0.0                 !
 ! D16   D(10,4,5,8)             0.0            -DE/DX =    0.0                 !
 ! D17   D(4,5,6,1)              0.0            -DE/DX =    0.0                 !
 ! D18   D(4,5,6,7)            180.0            -DE/DX =    0.0                 !
 ! D19   D(8,5,6,1)            180.0            -DE/DX =    0.0                 !
 ! D20   D(8,5,6,7)              0.0            -DE/DX =    0.0                 !
 --------------------------------------------------------------------------------
 GradGradGradGradGradGradGradGradGradGradGradGradGradGradGradGradGradGrad


 ----------------------------------------------------------------------

 Electric dipole moment (input orientation):
 (Debye = 10**-18 statcoulomb cm , SI units = C m)
                  (au)            (Debye)         (10**-30 SI)
   Tot        0.234182D+01      0.595231D+01      0.198548D+02
   x         -0.468994D+00     -0.119206D+01     -0.397630D+01
   y         -0.229438D+01     -0.583173D+01     -0.194525D+02
   z          0.000000D+00      0.000000D+00      0.000000D+00

 Dipole polarizability, Alpha (input orientation).
 (esu units = cm**3 , SI units = C**2 m**2 J**-1)
 Alpha(0;0):
               (au)            (10**-24 esu)      (10**-40 SI)
   iso        0.100261D+03      0.148572D+02      0.165309D+02
   aniso      0.626205D+02      0.927939D+01      0.103247D+02
   xx         0.117980D+03      0.174828D+02      0.194522D+02
   yx         0.120489D+02      0.178546D+01      0.198660D+01
   yy         0.121840D+03      0.180549D+02      0.200887D+02
   zx         0.000000D+00      0.000000D+00      0.000000D+00
   zy         0.000000D+00      0.000000D+00      0.000000D+00
   zz         0.609641D+02      0.903395D+01      0.100516D+02

 ----------------------------------------------------------------------

 Dipole orientation:
     6         -2.53607112          0.51839856         -1.83032579
     6         -0.62721080          0.12820822         -3.66425810
     6          1.76514328         -0.36081312         -2.57027544
     6          2.25445679         -0.46083375          0.02167577
     6          0.30730129         -0.06281549          1.75466063
     6         -2.06449655          0.42200395          0.75188770
    17         -4.60576722          0.94146535          2.94016638
     1          0.60745723         -0.12417039          3.77814162
     1          3.37807864         -0.69051340         -3.81643228
     1          4.15113134         -0.84853319          0.72260472
     1         -4.47452415          0.91463794         -2.40558473

 Electric dipole moment (dipole orientation):
 (Debye = 10**-18 statcoulomb cm , SI units = C m)
                  (au)            (Debye)         (10**-30 SI)
   Tot        0.234182D+01      0.595231D+01      0.198548D+02
   x          0.000000D+00      0.000000D+00      0.000000D+00
   y          0.000000D+00      0.000000D+00      0.000000D+00
   z          0.234182D+01      0.595231D+01      0.198548D+02

 Dipole polarizability, Alpha (dipole orientation).
 (esu units = cm**3 , SI units = C**2 m**2 J**-1)
 Alpha(0;0):
               (au)            (10**-24 esu)      (10**-40 SI)
   iso        0.100261D+03      0.148572D+02      0.165309D+02
   aniso      0.626205D+02      0.927939D+01      0.103247D+02
   xx         0.111303D+03      0.164934D+02      0.183514D+02
   yx        -0.102898D+02     -0.152479D+01     -0.169655D+01
   yy         0.630674D+02      0.934563D+01      0.103984D+02
   zx        -0.101157D+02     -0.149900D+01     -0.166786D+01
   zy         0.206776D+01      0.306411D+00      0.340928D+00
   zz         0.126414D+03      0.187326D+02      0.208428D+02

 ----------------------------------------------------------------------
 1\1\GINC-SH03-08N45\Freq\RM062X\6-311++G(d,p)\C6H4Cl1(1-)\JLAPIER\03-A
 pr-2026\0\\#N Geom=AllCheck Guess=TCheck SCRF=Check GenChk RM062X/6-31
 1++G(d,p) Freq\\chlorobenzene anion radical\\-1,1\C,-1.1480572051,1.22
 32691674,0.\C,0.0564242198,1.9676036238,0.\C,1.2064656419,1.1416421536
 ,0.\C,1.1907100086,-0.2551006627,0.\C,-0.0233381697,-0.9429558906,0.\C
 ,-1.1721679059,-0.1665062542,0.\Cl,-2.7488593136,-1.0261466178,0.\H,-0
 .0789464827,-2.0245105556,0.\H,2.1920591925,1.6132505012,0.\H,2.120104
 0727,-0.8236636037,0.\H,-2.112877715,1.7311968061,0.\\Version=ES64L-G1
 6RevB.01\State=1-A'\HF=-691.1672702\RMSD=4.068e-09\RMSF=7.420e-05\Zero
 Point=0.0767451\Thermal=0.0823216\Dipole=-0.468994,-2.2943779,0.\Dipol
 eDeriv=0.0001996,-0.2659185,0.,-0.0641733,-0.3055412,0.,0.,0.,-0.14941
 16,-0.5620973,0.0684466,0.,-0.0873823,-0.3013708,0.,0.,0.,-0.5842004,0
 .280657,0.0594813,0.,-0.0013282,-0.2095952,0.,0.,0.,-0.1786479,0.16624
 19,0.0601931,0.,0.1460733,0.1219101,0.,0.,0.,-0.1320338,-0.4168938,-0.
 0630888,0.,-0.0767581,-0.2112609,0.,0.,0.,-0.2277543,1.1509581,0.55136
 23,0.,0.4432001,0.5893736,0.,0.,0.,0.0456513,-1.0031429,-0.5396764,0.,
 -0.4709556,-0.5417499,0.,0.,0.,-0.1952664,0.0664949,-0.0188849,0.,-0.0
 065876,-0.1194668,0.,0.,0.,0.1477514,-0.2840432,-0.0452375,0.,-0.10894
 03,0.0130151,0.,0.,0.,0.0829152,-0.2035085,0.1651094,0.,0.1366501,-0.0
 833106,0.,0.,0.,0.1184767,-0.1948657,0.0282133,0.,0.090202,0.0479966,0
 .,0.,0.,0.0725197\Polar=117.9797273,12.0489034,121.8402392,0.,0.,60.96
 41109\Quadrupole=1.8234965,-7.2734609,5.4499644,-6.9261546,0.,0.\PG=CS
  [SG(C6H4Cl1)]\NImag=0\\0.65463379,-0.06557050,0.60427470,0.,0.,0.1310
 6850,-0.23721450,-0.06290677,0.,0.50243888,-0.08540695,-0.13615008,0.,
 -0.00901139,0.32338067,0.,0.,-0.04920774,0.,0.,0.06687956,-0.04973183,
 -0.00543379,0.,-0.22279309,0.09028525,0.,0.64884655,0.00685549,0.05334
 425,0.,0.07909375,-0.15596194,0.,0.04437239,0.61855157,0.,0.,-0.002190
 21,0.,0.,-0.05021802,0.,0.,0.13293266,-0.01720789,-0.03509041,0.,0.037
 39725,0.02370026,0.,-0.12437314,0.03354548,0.,0.70366175,-0.01875405,-
 0.05113647,0.,0.07382904,-0.02562743,0.,-0.04349106,-0.31981398,0.,-0.
 01956705,0.66104006,0.,0.,-0.00651824,0.,0.,0.01854343,0.,0.,-0.061413
 62,0.,0.,0.12360451,0.03239934,0.07816428,0.,-0.06875409,0.00415254,0.
 ,0.02719769,-0.08475298,0.,-0.28418189,-0.05763763,0.,0.65335576,0.018
 47079,-0.03403322,0.,0.00457181,0.00469078,0.,-0.02649576,-0.02630944,
 0.,-0.12866612,-0.17280875,0.,0.00119638,0.76003739,0.,0.,0.01014590,0
 .,0.,-0.00678733,0.,0.,0.00781758,0.,0.,-0.05431286,0.,0.,0.11254294,-
 0.10037266,-0.02392076,0.,0.02979272,-0.01785160,0.,-0.01788817,0.0348
 6958,0.,-0.06742929,-0.03015952,0.,-0.25150575,0.15494616,0.,0.5015382
 7,0.06973935,-0.30912991,0.,-0.09234546,-0.01698761,0.,0.01993651,-0.0
 5946760,0.,0.03689703,0.06220444,0.,0.08069006,-0.19222478,0.,-0.11262
 068,0.59988500,0.,0.,-0.06576027,0.,0.,0.01956870,0.,0.,-0.01100047,0.
 ,0.,0.00608990,0.,0.,-0.05975639,0.,0.,0.11881887,-0.02521175,-0.00801
 162,0.,0.00553654,-0.00834801,0.,-0.00099278,-0.00028931,0.,-0.0001458
 7,0.00738778,0.,-0.03870844,-0.02548589,0.,-0.09300148,-0.02427196,0.,
 0.15125966,-0.04201090,-0.01328765,0.,0.00585138,-0.00805361,0.,-0.000
 70667,0.00169069,0.,0.00026210,-0.00031482,0.,0.00413141,0.00376729,0.
 ,-0.02737104,-0.05133416,0.,0.05976073,0.06488189,0.,0.,0.00414919,0.,
 0.,0.00402850,0.,0.,0.00021436,0.,0.,0.00563069,0.,0.,0.00295370,0.,0.
 ,-0.02070988,0.,0.,0.01023419,-0.00445699,0.00237359,0.,-0.00086068,-0
 .00011933,0.,-0.00473026,-0.00148567,0.,0.00533006,-0.02738422,0.,-0.0
 5584755,-0.01513782,0.,0.00399259,0.02565180,0.,0.00099687,0.00086793,
 0.,0.05486553,0.00409662,0.00116974,0.,0.00005130,0.00069980,0.,-0.003
 41814,0.00153059,0.,0.00314961,-0.01012843,0.,-0.01076952,-0.34204123,
 0.,-0.00739563,-0.01512866,0.,0.00037815,0.00159583,0.,0.01451474,0.36
 312156,0.,0.,0.00559420,0.,0.,-0.00300075,0.,0.,0.00745976,0.,0.,0.000
 71350,0.,0.,-0.02750488,0.,0.,0.00081070,0.,0.,-0.00289681,0.,0.,0.021
 45912,-0.00559029,0.00105243,0.,-0.02347174,-0.00320001,0.,-0.25271138
 ,-0.10858297,0.,-0.00150842,0.00109657,0.,0.00252795,-0.00108011,0.,0.
 00041910,0.00247272,0.,-0.00037410,-0.00057303,0.,-0.00020381,0.000004
 16,0.,0.28115837,0.00452998,0.00125806,0.,0.01584920,0.00960124,0.,-0.
 10127567,-0.10664809,0.,-0.03139249,-0.01331821,0.,0.00075705,-0.00581
 374,0.,0.00155883,-0.00129200,0.,-0.00007399,0.00036258,0.,-0.00148196
 ,-0.00078279,0.,0.11027193,0.11561040,0.,0.,0.00956333,0.,0.,-0.002875
 37,0.,0.,-0.03783635,0.,0.,0.00349656,0.,0.,0.00725968,0.,0.,-0.000071
 95,0.,0.,-0.00195362,0.,0.,0.00045003,0.,0.,0.02518411,0.00068786,-0.0
 0107816,0.,0.00148760,0.00230215,0.,0.00195817,-0.00279994,0.,-0.25119
 497,0.11640807,0.,-0.01929427,0.01756665,0.,-0.00191216,-0.00385420,0.
 ,-0.00147679,0.00018287,0.,0.00079583,-0.00066426,0.,0.00061521,0.0006
 7654,0.,0.26839170,-0.00157671,-0.00118660,0.,-0.00065494,-0.00651221,
 0.,0.03034000,-0.00785743,0.,0.11851903,-0.12981602,0.,-0.01424883,0.0
 1040904,0.,-0.00231023,0.00038616,0.,-0.00140242,-0.00016643,0.,0.0007
 9522,0.00080418,0.,-0.00086800,0.00075562,0.,-0.12884631,0.13304715,0.
 ,0.,-0.00003551,0.,0.,0.00587099,0.,0.,0.00338800,0.,0.,-0.03392688,0.
 ,0.,0.00145662,0.,0.,0.00835363,0.,0.,0.00058492,0.,0.,-0.00393463,0.,
 0.,-0.00342651,0.,0.,0.02373241,-0.24793509,0.12042170,0.,-0.02355888,
 0.00349707,0.,-0.00478176,-0.00082582,0.,-0.00034757,-0.00172794,0.,0.
 00281128,0.00011391,0.,-0.00363315,-0.00229515,0.,0.00211814,-0.000394
 78,0.,0.00011842,0.00005299,0.,-0.00086087,0.00058057,0.,-0.00005817,0
 .00025319,0.,0.27612766,0.10962688,-0.11512280,0.,-0.01432791,0.010920
 39,0.,-0.00411307,0.00094138,0.,-0.00135744,-0.00028039,0.,-0.00168276
 ,-0.00567334,0.,0.03025489,-0.01691087,0.,0.00035654,0.00085838,0.,0.0
 0140571,-0.00084059,0.,-0.00059369,0.00026694,0.,0.00010658,0.00013654
 ,0.,-0.11967574,0.12570438,0.,0.,-0.03680915,0.,0.,-0.00280198,0.,0.,0
 .01084631,0.,0.,-0.00190699,0.,0.,0.00618504,0.,0.,0.00365718,0.,0.,-0
 .00223523,0.,0.,0.00084977,0.,0.,0.00021009,0.,0.,-0.00206303,0.,0.,0.
 02406799\\0.00002666,-0.00005417,0.,-0.00004626,0.00020281,0.,0.000061
 53,-0.00019881,0.,0.00002835,0.00010337,0.,-0.00001972,-0.00012836,0.,
 -0.00015952,-0.00010241,0.,0.00011243,0.00009769,0.,-0.00000025,0.0000
 3026,0.,0.00002415,0.00000681,0.,-0.00000381,0.00005255,0.,-0.00002357
 ,-0.00000973,0.\\\@


 IF OTHER PEOPLE ARE GOING TO TALK, CONVERSATION IS SIMPLY IMPOSSIBLE.

                                               -- WHISTLER'S PRINCIPLE
 Job cpu time:       0 days  0 hours 12 minutes 49.9 seconds.
 Elapsed time:       0 days  0 hours  3 minutes 13.4 seconds.
 File lengths (MBytes):  RWF=     81 Int=      0 D2E=      0 Chk=      4 Scr=      1
 Normal termination of Gaussian 16 at Fri Apr  3 14:17:43 2026.
