 Entering Gaussian System, Link 0=g16
 Initial command:
 /share/software/user/restricted/gaussian/g16.B01/l1.exe "/home/users/jlapier/Chloroaromatics/Gau-14132.inp" -scrdir="/home/users/jlapier/Chloroaromatics/"
 Entering Link 1 = /share/software/user/restricted/gaussian/g16.B01/l1.exe PID=     14134.
  
 Copyright (c) 1988-2017, Gaussian, Inc.  All Rights Reserved.
  
 This is part of the Gaussian(R) 16 program.  It is based on
 the Gaussian(R) 09 system (copyright 2009, Gaussian, Inc.),
 the Gaussian(R) 03 system (copyright 2003, Gaussian, Inc.),
 the Gaussian(R) 98 system (copyright 1998, Gaussian, Inc.),
 the Gaussian(R) 94 system (copyright 1995, Gaussian, Inc.),
 the Gaussian 92(TM) system (copyright 1992, Gaussian, Inc.),
 the Gaussian 90(TM) system (copyright 1990, Gaussian, Inc.),
 the Gaussian 88(TM) system (copyright 1988, Gaussian, Inc.),
 the Gaussian 86(TM) system (copyright 1986, Carnegie Mellon
 University), and the Gaussian 82(TM) system (copyright 1983,
 Carnegie Mellon University). Gaussian is a federally registered
 trademark of Gaussian, Inc.
  
 This software contains proprietary and confidential information,
 including trade secrets, belonging to Gaussian, Inc.
  
 This software is provided under written license and may be
 used, copied, transmitted, or stored only in accord with that
 written license.
  
 The following legend is applicable only to US Government
 contracts under FAR:
  
                    RESTRICTED RIGHTS LEGEND
  
 Use, reproduction and disclosure by the US Government is
 subject to restrictions as set forth in subparagraphs (a)
 and (c) of the Commercial Computer Software - Restricted
 Rights clause in FAR 52.227-19.
  
 Gaussian, Inc.
 340 Quinnipiac St., Bldg. 40, Wallingford CT 06492
  
  
 ---------------------------------------------------------------
 Warning -- This program may not be used in any manner that
 competes with the business of Gaussian, Inc. or will provide
 assistance to any competitor of Gaussian, Inc.  The licensee
 of this program is prohibited from giving any competitor of
 Gaussian, Inc. access to this program.  By using this program,
 the user acknowledges that Gaussian, Inc. is engaged in the
 business of creating and licensing software in the field of
 computational chemistry and represents and warrants to the
 licensee that it is not a competitor of Gaussian, Inc. and that
 it will not use this program in any manner prohibited above.
 ---------------------------------------------------------------
  

 Cite this work as:
 Gaussian 16, Revision B.01,
 M. J. Frisch, G. W. Trucks, H. B. Schlegel, G. E. Scuseria, 
 M. A. Robb, J. R. Cheeseman, G. Scalmani, V. Barone, 
 G. A. Petersson, H. Nakatsuji, X. Li, M. Caricato, A. V. Marenich, 
 J. Bloino, B. G. Janesko, R. Gomperts, B. Mennucci, H. P. Hratchian, 
 J. V. Ortiz, A. F. Izmaylov, J. L. Sonnenberg, D. Williams-Young, 
 F. Ding, F. Lipparini, F. Egidi, J. Goings, B. Peng, A. Petrone, 
 T. Henderson, D. Ranasinghe, V. G. Zakrzewski, J. Gao, N. Rega, 
 G. Zheng, W. Liang, M. Hada, M. Ehara, K. Toyota, R. Fukuda, 
 J. Hasegawa, M. Ishida, T. Nakajima, Y. Honda, O. Kitao, H. Nakai, 
 T. Vreven, K. Throssell, J. A. Montgomery, Jr., J. E. Peralta, 
 F. Ogliaro, M. J. Bearpark, J. J. Heyd, E. N. Brothers, K. N. Kudin, 
 V. N. Staroverov, T. A. Keith, R. Kobayashi, J. Normand, 
 K. Raghavachari, A. P. Rendell, J. C. Burant, S. S. Iyengar, 
 J. Tomasi, M. Cossi, J. M. Millam, M. Klene, C. Adamo, R. Cammi, 
 J. W. Ochterski, R. L. Martin, K. Morokuma, O. Farkas, 
 J. B. Foresman, and D. J. Fox, Gaussian, Inc., Wallingford CT, 2016.
 
 ******************************************
 Gaussian 16:  ES64L-G16RevB.01 20-Dec-2017
                 3-Apr-2026 
 ******************************************
 %mem=8GB
 %nprocshare=4
 Will use up to    4 processors via shared memory.
 %chk=frequency_chks/chlorobenzene_anion_product_Freq.chk
 ------------------------------
 # opt freq 6-311++g(d,p) m062x
 ------------------------------
 1/18=20,19=15,26=3,38=1/1,3;
 2/9=110,12=2,17=6,18=5,40=1/2;
 3/5=4,6=6,7=1111,11=2,25=1,30=1,71=1,74=-55/1,2,3;
 4//1;
 5/5=2,38=5/2;
 6/7=2,8=2,9=2,10=2,28=1/1;
 7//1,2,3,16;
 1/18=20,19=15,26=3/3(2);
 2/9=110/2;
 99//99;
 2/9=110/2;
 3/5=4,6=6,7=1111,11=2,25=1,30=1,71=1,74=-55/1,2,3;
 4/5=5,16=3,69=1/1;
 5/5=2,38=5/2;
 7//1,2,3,16;
 1/18=20,19=15,26=3/3(-5);
 2/9=110/2;
 6/7=2,8=2,9=2,10=2,19=2,28=1/1;
 99/9=1/99;
 ---------------------
 benzene anion radical
 ---------------------
 Symbolic Z-matrix:
 Charge = -1 Multiplicity = 1
 C                    -1.22638   1.19957   0. 
 C                     0.00616   1.86171   0. 
 C                     1.19503   1.12596   0. 
 C                     1.15345  -0.27154   0. 
 C                    -0.07848  -0.93482   0. 
 C                    -1.26867  -0.19905   0. 
 H                    -2.2219   -0.71171   0. 
 H                    -0.11079  -2.01668   0. 
 H                     2.07563  -0.8371    0. 
 H                    -2.1468    1.76903   0. 
 H                     0.04271   2.94288   0. 
 

 GradGradGradGradGradGradGradGradGradGradGradGradGradGradGradGradGradGrad
 Berny optimization.
 Initialization pass.
                           ----------------------------
                           !    Initial Parameters    !
                           ! (Angstroms and Degrees)  !
 --------------------------                            --------------------------
 ! Name  Definition              Value          Derivative Info.                !
 --------------------------------------------------------------------------------
 ! R1    R(1,2)                  1.3991         estimate D2E/DX2                !
 ! R2    R(1,6)                  1.3993         estimate D2E/DX2                !
 ! R3    R(1,10)                 1.0823         estimate D2E/DX2                !
 ! R4    R(2,3)                  1.3981         estimate D2E/DX2                !
 ! R5    R(2,11)                 1.0818         estimate D2E/DX2                !
 ! R6    R(3,4)                  1.3981         estimate D2E/DX2                !
 ! R7    R(4,5)                  1.3991         estimate D2E/DX2                !
 ! R8    R(4,9)                  1.0818         estimate D2E/DX2                !
 ! R9    R(5,6)                  1.3993         estimate D2E/DX2                !
 ! R10   R(5,8)                  1.0823         estimate D2E/DX2                !
 ! R11   R(6,7)                  1.0823         estimate D2E/DX2                !
 ! A1    A(2,1,6)              119.9776         estimate D2E/DX2                !
 ! A2    A(2,1,10)             120.0094         estimate D2E/DX2                !
 ! A3    A(6,1,10)             120.013          estimate D2E/DX2                !
 ! A4    A(1,2,3)              120.0025         estimate D2E/DX2                !
 ! A5    A(1,2,11)             120.1814         estimate D2E/DX2                !
 ! A6    A(3,2,11)             119.8161         estimate D2E/DX2                !
 ! A7    A(2,3,4)              120.0479         estimate D2E/DX2                !
 ! A8    A(3,4,5)              120.0025         estimate D2E/DX2                !
 ! A9    A(3,4,9)              119.8161         estimate D2E/DX2                !
 ! A10   A(5,4,9)              120.1814         estimate D2E/DX2                !
 ! A11   A(4,5,6)              119.9776         estimate D2E/DX2                !
 ! A12   A(4,5,8)              120.0094         estimate D2E/DX2                !
 ! A13   A(6,5,8)              120.013          estimate D2E/DX2                !
 ! A14   A(1,6,5)              119.9919         estimate D2E/DX2                !
 ! A15   A(1,6,7)              120.004          estimate D2E/DX2                !
 ! A16   A(5,6,7)              120.004          estimate D2E/DX2                !
 ! D1    D(6,1,2,3)              0.0            estimate D2E/DX2                !
 ! D2    D(6,1,2,11)           180.0            estimate D2E/DX2                !
 ! D3    D(10,1,2,3)           180.0            estimate D2E/DX2                !
 ! D4    D(10,1,2,11)            0.0            estimate D2E/DX2                !
 ! D5    D(2,1,6,5)              0.0            estimate D2E/DX2                !
 ! D6    D(2,1,6,7)            180.0            estimate D2E/DX2                !
 ! D7    D(10,1,6,5)           180.0            estimate D2E/DX2                !
 ! D8    D(10,1,6,7)             0.0            estimate D2E/DX2                !
 ! D9    D(1,2,3,4)              0.0            estimate D2E/DX2                !
 ! D10   D(11,2,3,4)           180.0            estimate D2E/DX2                !
 ! D11   D(2,3,4,5)              0.0            estimate D2E/DX2                !
 ! D12   D(2,3,4,9)            180.0            estimate D2E/DX2                !
 ! D13   D(3,4,5,6)              0.0            estimate D2E/DX2                !
 ! D14   D(3,4,5,8)            180.0            estimate D2E/DX2                !
 ! D15   D(9,4,5,6)            180.0            estimate D2E/DX2                !
 ! D16   D(9,4,5,8)              0.0            estimate D2E/DX2                !
 ! D17   D(4,5,6,1)              0.0            estimate D2E/DX2                !
 ! D18   D(4,5,6,7)            180.0            estimate D2E/DX2                !
 ! D19   D(8,5,6,1)            180.0            estimate D2E/DX2                !
 ! D20   D(8,5,6,7)              0.0            estimate D2E/DX2                !
 --------------------------------------------------------------------------------
 Trust Radius=3.00D-01 FncErr=1.00D-07 GrdErr=1.00D-06 EigMax=2.50D+02 EigMin=1.00D-04
 Number of steps in this run=     57 maximum allowed number of steps=    100.
 GradGradGradGradGradGradGradGradGradGradGradGradGradGradGradGradGradGrad

                          Input orientation:                          
 ---------------------------------------------------------------------
 Center     Atomic      Atomic             Coordinates (Angstroms)
 Number     Number       Type             X           Y           Z
 ---------------------------------------------------------------------
      1          6           0       -1.226378    1.199569    0.000000
      2          6           0        0.006162    1.861711    0.000000
      3          6           0        1.195028    1.125960    0.000000
      4          6           0        1.153451   -0.271539    0.000000
      5          6           0       -0.078477   -0.934819    0.000000
      6          6           0       -1.268672   -0.199049    0.000000
      7          1           0       -2.221901   -0.711707    0.000000
      8          1           0       -0.110794   -2.016676    0.000000
      9          1           0        2.075627   -0.837097    0.000000
     10          1           0       -2.146796    1.769033    0.000000
     11          1           0        0.042707    2.942881    0.000000
 ---------------------------------------------------------------------
                    Distance matrix (angstroms):
                    1          2          3          4          5
     1  C    0.000000
     2  C    1.399138   0.000000
     3  C    2.422524   1.398117   0.000000
     4  C    2.797811   2.422195   1.398117   0.000000
     5  C    2.423487   2.797811   2.422524   1.399138   0.000000
     6  C    1.399258   2.423208   2.797404   2.423208   1.399258
     7  H    2.155005   3.403931   3.879745   3.403931   2.155004
     8  H    3.404227   3.880151   3.403136   2.154953   1.082340
     9  H    3.879593   3.400919   2.151522   1.081787   2.156319
    10  H    1.082340   2.154953   3.403136   3.880151   3.404227
    11  H    2.156319   1.081787   2.151522   3.400919   3.879593
                    6          7          8          9         10
     6  C    0.000000
     7  H    1.082341   0.000000
     8  H    2.155098   2.481877   0.000000
     9  H    3.404621   4.299357   2.484320   0.000000
    10  H    2.155098   2.481877   4.298476   4.961932   0.000000
    11  H    3.404621   4.299357   4.961932   4.291969   2.484320
                   11
    11  H    0.000000
 Stoichiometry    C6H5(1-)
 Framework group  C2V[C2(HCC),SGV(C4H4)]
 Deg. of freedom    10
 Full point group                 C2V     NOp   4
 Largest Abelian subgroup         C2V     NOp   4
 Largest concise Abelian subgroup C2      NOp   2
                         Standard orientation:                         
 ---------------------------------------------------------------------
 Center     Atomic      Atomic             Coordinates (Angstroms)
 Number     Number       Type             X           Y           Z
 ---------------------------------------------------------------------
      1          6           0       -0.000000    1.211743   -0.639037
      2          6           0       -0.000000    1.211098    0.760101
      3          6           0        0.000000   -0.000000    1.458653
      4          6           0       -0.000000   -1.211098    0.760101
      5          6           0       -0.000000   -1.211743   -0.639037
      6          6           0       -0.000000    0.000000   -1.338751
      7          1           0       -0.000000    0.000000   -2.421093
      8          1           0        0.000000   -2.149238   -1.179928
      9          1           0        0.000000   -2.145985    1.304389
     10          1           0        0.000000    2.149238   -1.179928
     11          1           0        0.000000    2.145985    1.304389
 ---------------------------------------------------------------------
 Rotational constants (GHZ):           6.1044220           5.6761696           2.9412559
 Standard basis: 6-311++G(d,p) (5D, 7F)
 There are    75 symmetry adapted cartesian basis functions of A1  symmetry.
 There are    16 symmetry adapted cartesian basis functions of A2  symmetry.
 There are    25 symmetry adapted cartesian basis functions of B1  symmetry.
 There are    57 symmetry adapted cartesian basis functions of B2  symmetry.
 There are    71 symmetry adapted basis functions of A1  symmetry.
 There are    16 symmetry adapted basis functions of A2  symmetry.
 There are    25 symmetry adapted basis functions of B1  symmetry.
 There are    55 symmetry adapted basis functions of B2  symmetry.
   167 basis functions,   261 primitive gaussians,   173 cartesian basis functions
    21 alpha electrons       21 beta electrons
       nuclear repulsion energy       193.7032210627 Hartrees.
 NAtoms=   11 NActive=   11 NUniq=    7 SFac= 2.47D+00 NAtFMM=   60 NAOKFM=F Big=F
 Integral buffers will be    131072 words long.
 Raffenetti 2 integral format.
 Two-electron integral symmetry is turned on.
 One-electron integrals computed using PRISM.
 NBasis=   167 RedAO= T EigKep=  2.14D-06  NBF=    71    16    25    55
 NBsUse=   167 1.00D-06 EigRej= -1.00D+00 NBFU=    71    16    25    55
 ExpMin= 3.60D-02 ExpMax= 4.56D+03 ExpMxC= 6.82D+02 IAcc=3 IRadAn=         5 AccDes= 0.00D+00
 Harris functional with IExCor= 1009 and IRadAn=       5 diagonalized for initial guess.
 HarFok:  IExCor= 1009 AccDes= 0.00D+00 IRadAn=         5 IDoV= 1 UseB2=F ITyADJ=14
 ICtDFT=  3500011 ScaDFX=  1.000000  1.000000  1.000000  1.000000
 FoFCou: FMM=F IPFlag=           0 FMFlag=      100000 FMFlg1=           0
         NFxFlg=           0 DoJE=T BraDBF=F KetDBF=T FulRan=T
         wScrn=  0.000000 ICntrl=       500 IOpCl=  0 I1Cent=   200000004 NGrid=           0
         NMat0=    1 NMatS0=      1 NMatT0=    0 NMatD0=    1 NMtDS0=    0 NMtDT0=    0
 Petite list used in FoFCou.
 Initial guess orbital symmetries:
       Occupied  (A1) (B2) (A1) (B2) (A1) (A1) (A1) (B2) (A1) (B2)
                 (A1) (A1) (B2) (A1) (B2) (A1) (B1) (B2) (A2) (B1)
                 (A1)
       Virtual   (A2) (B1) (A1) (B2) (A1) (B1) (B2) (A1) (A1) (B1)
                 (A1) (A2) (B1) (B2) (A1) (B2) (B2) (A1) (A1) (B2)
                 (A2) (B1) (A1) (B2) (A1) (A1) (B2) (B1) (A1) (B2)
                 (A1) (B2) (A1) (B2) (A1) (A1) (A1) (B2) (A1) (B2)
                 (B2) (B2) (A1) (B2) (A1) (B1) (B2) (A1) (A1) (B2)
                 (A2) (B1) (A2) (B1) (A1) (A1) (B1) (B2) (A1) (B2)
                 (A1) (A1) (B2) (A1) (A1) (B2) (B2) (A1) (B2) (B1)
                 (A2) (A1) (A2) (B2) (B1) (A2) (B1) (A1) (A1) (B2)
                 (A1) (B2) (A1) (A2) (B1) (A1) (B2) (B1) (A1) (B2)
                 (B1) (A2) (A1) (B2) (B1) (A2) (B2) (A1) (B2) (A1)
                 (A1) (B2) (B1) (A2) (B1) (B2) (A2) (A1) (A1) (B2)
                 (B2) (A1) (B1) (A1) (A1) (A1) (B1) (A2) (B2) (A1)
                 (B2) (A1) (B2) (A2) (B1) (B2) (B2) (A1) (B1) (B2)
                 (A1) (B2) (A1) (A1) (A1) (B2) (A1) (A1) (B2) (B2)
                 (A1) (A1) (B2) (A1) (B2) (A1)
 The electronic state of the initial guess is 1-A1.
 Keep R1 ints in memory in symmetry-blocked form, NReq=124767515.
 Requested convergence on RMS density matrix=1.00D-08 within 128 cycles.
 Requested convergence on MAX density matrix=1.00D-06.
 Requested convergence on             energy=1.00D-06.
 No special actions if energy rises.
 SCF Done:  E(RM062X) =  -231.544331528     A.U. after   19 cycles
            NFock= 19  Conv=0.61D-08     -V/T= 2.0038

 **********************************************************************

            Population analysis using the SCF Density.

 **********************************************************************

 Orbital symmetries:
       Occupied  (A1) (B2) (A1) (B2) (A1) (A1) (A1) (B2) (A1) (B2)
                 (A1) (A1) (A1) (B2) (B2) (A1) (B1) (B2) (A2) (B1)
                 (A1)
       Virtual   (A1) (B2) (A1) (B2) (A1) (A2) (B1) (B1) (A1) (B2)
                 (A2) (A1) (B1) (B2) (A1) (A1) (B2) (A1) (B2) (B1)
                 (A2) (A1) (B1) (B2) (A1) (B2) (A1) (A1) (B2) (B2)
                 (A1) (A1) (B1) (B2) (A1) (A1) (B2) (A1) (B2) (A1)
                 (B2) (B2) (A1) (B1) (A1) (B2) (A1) (A2) (B2) (B1)
                 (B2) (A1) (A2) (B1) (A1) (B1) (A1) (B2) (A1) (B2)
                 (A1) (A1) (B2) (A1) (A1) (B2) (B2) (A1) (B2) (A1)
                 (B1) (B2) (A2) (A2) (B1) (A2) (A1) (B1) (A1) (B2)
                 (A1) (B2) (A1) (B1) (A2) (A1) (B2) (B1) (A1) (B1)
                 (B2) (A2) (B2) (A1) (B2) (B1) (B2) (A1) (A2) (A1)
                 (B1) (A1) (B2) (A2) (B1) (B2) (A2) (A1) (A1) (B2)
                 (B2) (A1) (A1) (A1) (B2) (A1) (B1) (A1) (B2) (A1)
                 (B2) (A2) (B1) (A2) (B1) (B2) (B1) (A1) (B2) (A1)
                 (B2) (A1) (B2) (A1) (A1) (B2) (A1) (A1) (B2) (B2)
                 (A1) (A1) (B2) (A1) (B2) (A1)
 The electronic state is 1-A1.
 Alpha  occ. eigenvalues --  -10.36474 -10.36365 -10.36339 -10.34174 -10.34174
 Alpha  occ. eigenvalues --  -10.28708  -0.76063  -0.65182  -0.62912  -0.49212
 Alpha  occ. eigenvalues --   -0.47623  -0.40231  -0.33413  -0.31121  -0.30347
 Alpha  occ. eigenvalues --   -0.26070  -0.24568  -0.20655  -0.12246  -0.10032
 Alpha  occ. eigenvalues --   -0.01179
 Alpha virt. eigenvalues --    0.10485   0.11281   0.12298   0.13456   0.14178
 Alpha virt. eigenvalues --    0.19320   0.20444   0.20976   0.21875   0.23126
 Alpha virt. eigenvalues --    0.23130   0.24287   0.24531   0.24811   0.25009
 Alpha virt. eigenvalues --    0.25781   0.27496   0.27621   0.27970   0.28311
 Alpha virt. eigenvalues --    0.28747   0.29034   0.30181   0.30760   0.31876
 Alpha virt. eigenvalues --    0.32383   0.32796   0.36776   0.36839   0.37262
 Alpha virt. eigenvalues --    0.39897   0.41319   0.41780   0.45392   0.46557
 Alpha virt. eigenvalues --    0.46874   0.47903   0.53135   0.54402   0.56714
 Alpha virt. eigenvalues --    0.57776   0.66729   0.67978   0.73815   0.73879
 Alpha virt. eigenvalues --    0.75110   0.75867   0.77944   0.78742   0.79246
 Alpha virt. eigenvalues --    0.80592   0.81723   0.83314   0.84142   0.86073
 Alpha virt. eigenvalues --    0.90908   0.91356   0.93618   0.94772   0.97559
 Alpha virt. eigenvalues --    0.99312   1.01446   1.04136   1.04866   1.06245
 Alpha virt. eigenvalues --    1.08090   1.10759   1.11959   1.13948   1.18938
 Alpha virt. eigenvalues --    1.19145   1.22909   1.26151   1.31691   1.34527
 Alpha virt. eigenvalues --    1.39231   1.41942   1.47345   1.53658   1.69089
 Alpha virt. eigenvalues --    1.73504   1.74549   1.75964   1.78056   1.80173
 Alpha virt. eigenvalues --    1.85397   1.86408   1.88515   1.89893   1.94223
 Alpha virt. eigenvalues --    1.96226   1.98868   2.03374   2.05061   2.12529
 Alpha virt. eigenvalues --    2.15168   2.15498   2.16667   2.16819   2.21191
 Alpha virt. eigenvalues --    2.23002   2.24544   2.25169   2.29474   2.49653
 Alpha virt. eigenvalues --    2.54812   2.56539   2.61390   2.63594   2.68087
 Alpha virt. eigenvalues --    2.74602   2.74628   2.82161   2.86173   2.89455
 Alpha virt. eigenvalues --    2.90414   2.90862   2.92453   2.93535   3.01252
 Alpha virt. eigenvalues --    3.03696   3.04116   3.04657   3.14257   3.15359
 Alpha virt. eigenvalues --    3.17135   3.33161   3.33884   3.36238   3.59047
 Alpha virt. eigenvalues --    3.59685   3.71595   3.72559   3.84632   3.99250
 Alpha virt. eigenvalues --    4.22511   4.26071   4.35066   4.39021   5.04115
 Alpha virt. eigenvalues --   23.83506  24.21774  24.23589  24.34444  24.35031
 Alpha virt. eigenvalues --   24.43576
          Condensed to atoms (all electrons):
               1          2          3          4          5          6
     1  C    7.792165  -2.532513   3.313395  -2.845091   2.530157  -3.349468
     2  C   -2.532513   9.217609  -4.020272   3.687987  -2.845091   4.021275
     3  C    3.313395  -4.020272  10.429085  -4.020272   3.313395  -4.889304
     4  C   -2.845091   3.687987  -4.020272   9.217609  -2.532513   4.021275
     5  C    2.530157  -2.845091   3.313395  -2.532513   7.792165  -3.349468
     6  C   -3.349468   4.021275  -4.889304   4.021275  -3.349468  10.832106
     7  H   -0.100969   0.084666  -0.119245   0.084666  -0.100969   0.498350
     8  H    0.408700  -0.400321   0.583659  -0.547689   0.789921  -0.741782
     9  H   -0.026756   0.021762   0.028317   0.355307  -0.093626   0.045014
    10  H    0.789921  -0.547689   0.583659  -0.400321   0.408700  -0.741782
    11  H   -0.093626   0.355307   0.028317   0.021762  -0.026756   0.045014
               7          8          9         10         11
     1  C   -0.100969   0.408700  -0.026756   0.789921  -0.093626
     2  C    0.084666  -0.400321   0.021762  -0.547689   0.355307
     3  C   -0.119245   0.583659   0.028317   0.583659   0.028317
     4  C    0.084666  -0.547689   0.355307  -0.400321   0.021762
     5  C   -0.100969   0.789921  -0.093626   0.408700  -0.026756
     6  C    0.498350  -0.741782   0.045014  -0.741782   0.045014
     7  H    0.589655  -0.035131   0.002635  -0.035131   0.002635
     8  H   -0.035131   0.814157  -0.015062   0.048864  -0.008165
     9  H    0.002635  -0.015062   0.619529  -0.008165  -0.001304
    10  H   -0.035131   0.048864  -0.008165   0.814157  -0.015062
    11  H    0.002635  -0.008165  -0.001304  -0.015062   0.619529
 Mulliken charges:
               1
     1  C    0.114086
     2  C   -1.042720
     3  C    0.769264
     4  C   -1.042720
     5  C    0.114086
     6  C   -0.391232
     7  H    0.128839
     8  H    0.102849
     9  H    0.072350
    10  H    0.102849
    11  H    0.072350
 Sum of Mulliken charges =  -1.00000
 Mulliken charges with hydrogens summed into heavy atoms:
               1
     1  C    0.216935
     2  C   -0.970370
     3  C    0.769264
     4  C   -0.970370
     5  C    0.216935
     6  C   -0.262393
 Electronic spatial extent (au):  <R**2>=            467.7334
 Charge=             -1.0000 electrons
 Dipole moment (field-independent basis, Debye):
    X=              0.0000    Y=              0.0000    Z=             -5.5052  Tot=              5.5052
 Quadrupole moment (field-independent basis, Debye-Ang):
   XX=            -44.5971   YY=            -41.8474   ZZ=            -57.2039
   XY=             -0.0000   XZ=              0.0000   YZ=              0.0000
 Traceless Quadrupole moment (field-independent basis, Debye-Ang):
   XX=              3.2857   YY=              6.0354   ZZ=             -9.3211
   XY=             -0.0000   XZ=              0.0000   YZ=              0.0000
 Octapole moment (field-independent basis, Debye-Ang**2):
  XXX=              0.0000  YYY=              0.0000  ZZZ=            -53.0487  XYY=              0.0000
  XXY=             -0.0000  XXZ=             -4.4734  XZZ=              0.0000  YZZ=              0.0000
  YYZ=             -2.1849  XYZ=              0.0000
 Hexadecapole moment (field-independent basis, Debye-Ang**3):
 XXXX=            -67.2642 YYYY=           -352.7698 ZZZZ=           -479.9909 XXXY=             -0.0000
 XXXZ=              0.0000 YYYX=             -0.0000 YYYZ=             -0.0000 ZZZX=              0.0000
 ZZZY=             -0.0000 XXYY=            -76.3209 XXZZ=            -83.6711 YYZZ=           -118.8081
 XXYZ=             -0.0000 YYXZ=              0.0000 ZZXY=             -0.0000
 N-N= 1.937032210627D+02 E-N=-9.327046243214D+02  KE= 2.306684204873D+02
 Symmetry A1   KE= 1.465545766564D+02
 Symmetry A2   KE= 2.114721476346D+00
 Symmetry B1   KE= 3.900578422827D+00
 Symmetry B2   KE= 7.809854393178D+01
 Calling FoFJK, ICntrl=      2127 FMM=F ISym2X=1 I1Cent= 0 IOpClX= 0 NMat=1 NMatS=1 NMatT=0.
 ***** Axes restored to original set *****
 -------------------------------------------------------------------
 Center     Atomic                   Forces (Hartrees/Bohr)
 Number     Number              X              Y              Z
 -------------------------------------------------------------------
      1        6           0.002696936    0.000636790   -0.000000000
      2        6          -0.006772569   -0.026936243   -0.000000000
      3        6           0.038500325    0.020705958    0.000000000
      4        6          -0.026206829    0.009199508   -0.000000000
      5        6           0.002018097    0.001899014   -0.000000000
      6        6           0.001428129    0.000768066    0.000000000
      7        1          -0.002587384   -0.001391527    0.000000000
      8        1          -0.002973382   -0.006607758    0.000000000
      9        1           0.003650739   -0.005531030    0.000000000
     10        1          -0.007152127    0.001162132    0.000000000
     11        1          -0.002601935    0.006095091    0.000000000
 -------------------------------------------------------------------
 Cartesian Forces:  Max     0.038500325 RMS     0.010550506

 GradGradGradGradGradGradGradGradGradGradGradGradGradGradGradGradGradGrad
 Berny optimization.
 FormGI is forming the generalized inverse of G from B-inverse, IUseBI=4.
 Internal  Forces:  Max     0.030841930 RMS     0.007069069
 Search for a local minimum.
 Step number   1 out of a maximum of   57
 All quantities printed in internal units (Hartrees-Bohrs-Radians)
 Mixed Optimization -- RFO/linear search
 Second derivative matrix not updated -- first step.
 ITU=  0
     Eigenvalues ---    0.02099   0.02099   0.02099   0.02099   0.02101
     Eigenvalues ---    0.02104   0.02105   0.02111   0.16000   0.16000
     Eigenvalues ---    0.16000   0.16000   0.16000   0.22000   0.22000
     Eigenvalues ---    0.23190   0.35713   0.35713   0.35713   0.35779
     Eigenvalues ---    0.35779   0.41584   0.42281   0.45748   0.45764
     Eigenvalues ---    0.45841   0.45906
 RFO step:  Lambda=-9.00827186D-03 EMin= 2.09857388D-02
 Linear search not attempted -- first point.
 Iteration  1 RMS(Cart)=  0.03001298 RMS(Int)=  0.00105157
 Iteration  2 RMS(Cart)=  0.00142633 RMS(Int)=  0.00029190
 Iteration  3 RMS(Cart)=  0.00000033 RMS(Int)=  0.00029190
 ClnCor:  largest displacement from symmetrization is 1.49D-12 for atom     8.
 Variable       Old X    -DE/DX   Delta X   Delta X   Delta X     New X
                                 (Linear)    (Quad)   (Total)
    R1        2.64399   0.00374   0.00000   0.00800   0.00801   2.65200
    R2        2.64421  -0.00626   0.00000  -0.01388  -0.01427   2.62995
    R3        2.04533   0.00669   0.00000   0.01828   0.01828   2.06361
    R4        2.64206   0.00866   0.00000   0.01895   0.01932   2.66138
    R5        2.04428   0.00600   0.00000   0.01637   0.01637   2.06065
    R6        2.64206   0.00866   0.00000   0.01895   0.01932   2.66138
    R7        2.64399   0.00374   0.00000   0.00800   0.00801   2.65200
    R8        2.04428   0.00600   0.00000   0.01637   0.01637   2.06065
    R9        2.64421  -0.00626   0.00000  -0.01388  -0.01427   2.62995
   R10        2.04533   0.00669   0.00000   0.01828   0.01828   2.06361
   R11        2.04533   0.00294   0.00000   0.00802   0.00802   2.05335
    A1        2.09400   0.00089   0.00000   0.00034  -0.00012   2.09388
    A2        2.09456   0.00239   0.00000   0.01662   0.01685   2.11141
    A3        2.09462  -0.00328   0.00000  -0.01696  -0.01673   2.07789
    A4        2.09444   0.01700   0.00000   0.07263   0.07296   2.16740
    A5        2.09756  -0.01137   0.00000  -0.05329  -0.05345   2.04411
    A6        2.09119  -0.00563   0.00000  -0.01934  -0.01951   2.07168
    A7        2.09523  -0.03084   0.00000  -0.11992  -0.11877   1.97646
    A8        2.09444   0.01700   0.00000   0.07263   0.07296   2.16740
    A9        2.09119  -0.00563   0.00000  -0.01934  -0.01951   2.07168
   A10        2.09756  -0.01137   0.00000  -0.05329  -0.05345   2.04411
   A11        2.09400   0.00089   0.00000   0.00034  -0.00012   2.09388
   A12        2.09456   0.00239   0.00000   0.01662   0.01685   2.11141
   A13        2.09462  -0.00328   0.00000  -0.01696  -0.01673   2.07789
   A14        2.09425  -0.00493   0.00000  -0.02603  -0.02690   2.06736
   A15        2.09447   0.00247   0.00000   0.01301   0.01345   2.10792
   A16        2.09447   0.00247   0.00000   0.01301   0.01345   2.10792
    D1       -0.00000  -0.00000   0.00000  -0.00000   0.00000   0.00000
    D2        3.14159   0.00000   0.00000   0.00000   0.00000   3.14159
    D3        3.14159  -0.00000   0.00000  -0.00000   0.00000   3.14159
    D4       -0.00000   0.00000   0.00000   0.00000   0.00000   0.00000
    D5        0.00000  -0.00000   0.00000  -0.00000   0.00000   0.00000
    D6        3.14159  -0.00000   0.00000  -0.00000   0.00000   3.14159
    D7        3.14159   0.00000   0.00000   0.00000   0.00000   3.14159
    D8       -0.00000   0.00000   0.00000   0.00000   0.00000   0.00000
    D9       -0.00000   0.00000   0.00000   0.00000   0.00000   0.00000
   D10        3.14159  -0.00000   0.00000  -0.00000   0.00000   3.14159
   D11        0.00000  -0.00000   0.00000  -0.00000   0.00000   0.00000
   D12        3.14159   0.00000   0.00000   0.00000   0.00000   3.14159
   D13        0.00000   0.00000   0.00000   0.00000   0.00000   0.00000
   D14        3.14159   0.00000   0.00000   0.00000   0.00000   3.14159
   D15        3.14159  -0.00000   0.00000  -0.00000   0.00000   3.14159
   D16        0.00000  -0.00000   0.00000  -0.00000  -0.00000   0.00000
   D17       -0.00000   0.00000   0.00000   0.00000   0.00000   0.00000
   D18        3.14159   0.00000   0.00000   0.00000   0.00000   3.14159
   D19        3.14159  -0.00000   0.00000  -0.00000   0.00000   3.14159
   D20        0.00000  -0.00000   0.00000  -0.00000   0.00000   0.00000
         Item               Value     Threshold  Converged?
 Maximum Force            0.030842     0.000450     NO 
 RMS     Force            0.007069     0.000300     NO 
 Maximum Displacement     0.136096     0.001800     NO 
 RMS     Displacement     0.030202     0.001200     NO 
 Predicted change in Energy=-4.663515D-03
 GradGradGradGradGradGradGradGradGradGradGradGradGradGradGradGradGradGrad

                          Input orientation:                          
 ---------------------------------------------------------------------
 Center     Atomic      Atomic             Coordinates (Angstroms)
 Number     Number       Type             X           Y           Z
 ---------------------------------------------------------------------
      1          6           0       -1.217565    1.186133   -0.000000
      2          6           0        0.027610    1.833441   -0.000000
      3          6           0        1.267047    1.164693   -0.000000
      4          6           0        1.141689   -0.238060    0.000000
      5          6           0       -0.084828   -0.920059    0.000000
      6          6           0       -1.278336   -0.204246    0.000000
      7          1           0       -2.235304   -0.718916    0.000000
      8          1           0       -0.121013   -2.011474    0.000000
      9          1           0        2.047780   -0.844753    0.000000
     10          1           0       -2.148089    1.757640   -0.000000
     11          1           0        0.020968    2.923869   -0.000000
 ---------------------------------------------------------------------
                    Distance matrix (angstroms):
                    1          2          3          4          5
     1  C    0.000000
     2  C    1.403377   0.000000
     3  C    2.484705   1.408343   0.000000
     4  C    2.755794   2.352081   1.408343   0.000000
     5  C    2.391472   2.755794   2.484705   1.403377   0.000000
     6  C    1.391707   2.420261   2.890151   2.420261   1.391707
     7  H    2.159862   3.411056   3.976738   3.411056   2.159862
     8  H    3.380402   3.847786   3.466229   2.177019   1.092014
     9  H    3.845384   3.354670   2.155787   1.090449   2.133937
    10  H    1.092014   2.177019   3.466229   3.847786   3.380402
    11  H    2.133937   1.090449   2.155787   3.354670   3.845384
                    6          7          8          9         10
     6  C    0.000000
     7  H    1.086587   0.000000
     8  H    2.146035   2.478091   0.000000
     9  H    3.387226   4.284932   2.462702   0.000000
    10  H    2.146035   2.478091   4.279632   4.937385   0.000000
    11  H    3.387226   4.284932   4.937385   4.279075   2.462702
                   11
    11  H    0.000000
 Stoichiometry    C6H5(1-)
 Framework group  C2V[C2(HCC),SGV(C4H4)]
 Deg. of freedom    10
 Full point group                 C2V     NOp   4
 Largest Abelian subgroup         C2V     NOp   4
 Largest concise Abelian subgroup C2      NOp   2
                         Standard orientation:                         
 ---------------------------------------------------------------------
 Center     Atomic      Atomic             Coordinates (Angstroms)
 Number     Number       Type             X           Y           Z
 ---------------------------------------------------------------------
      1          6           0        0.000000    1.195736   -0.647956
      2          6           0        0.000000    1.176040    0.755283
      3          6           0        0.000000   -0.000000    1.530111
      4          6           0       -0.000000   -1.176040    0.755283
      5          6           0       -0.000000   -1.195736   -0.647956
      6          6           0       -0.000000    0.000000   -1.360040
      7          1           0       -0.000000    0.000000   -2.446628
      8          1           0       -0.000000   -2.139816   -1.196780
      9          1           0       -0.000000   -2.139537    1.265922
     10          1           0        0.000000    2.139816   -1.196780
     11          1           0        0.000000    2.139537    1.265922
 ---------------------------------------------------------------------
 Rotational constants (GHZ):           5.8789125           5.8669172           2.9364544
 Standard basis: 6-311++G(d,p) (5D, 7F)
 There are    75 symmetry adapted cartesian basis functions of A1  symmetry.
 There are    16 symmetry adapted cartesian basis functions of A2  symmetry.
 There are    25 symmetry adapted cartesian basis functions of B1  symmetry.
 There are    57 symmetry adapted cartesian basis functions of B2  symmetry.
 There are    71 symmetry adapted basis functions of A1  symmetry.
 There are    16 symmetry adapted basis functions of A2  symmetry.
 There are    25 symmetry adapted basis functions of B1  symmetry.
 There are    55 symmetry adapted basis functions of B2  symmetry.
   167 basis functions,   261 primitive gaussians,   173 cartesian basis functions
    21 alpha electrons       21 beta electrons
       nuclear repulsion energy       193.4422596234 Hartrees.
 NAtoms=   11 NActive=   11 NUniq=    7 SFac= 2.47D+00 NAtFMM=   60 NAOKFM=F Big=F
 Integral buffers will be    131072 words long.
 Raffenetti 2 integral format.
 Two-electron integral symmetry is turned on.
 One-electron integrals computed using PRISM.
 NBasis=   167 RedAO= T EigKep=  2.33D-06  NBF=    71    16    25    55
 NBsUse=   167 1.00D-06 EigRej= -1.00D+00 NBFU=    71    16    25    55
 Initial guess from the checkpoint file:  "frequency_chks/chlorobenzene_anion_product_Freq.chk"
 B after Tr=     0.000000    0.000000    0.000000
         Rot=    1.000000   -0.000000   -0.000000    0.000000 Ang=   0.00 deg.
 Initial guess orbital symmetries:
       Occupied  (A1) (B2) (A1) (B2) (A1) (A1) (A1) (B2) (A1) (B2)
                 (A1) (A1) (A1) (B2) (B2) (A1) (B1) (B2) (A2) (B1)
                 (A1)
       Virtual   (A1) (B2) (A1) (B2) (A1) (A2) (B1) (B1) (A1) (B2)
                 (A2) (A1) (B1) (B2) (A1) (A1) (B2) (A1) (B2) (B1)
                 (A2) (A1) (B1) (B2) (A1) (B2) (A1) (A1) (B2) (B2)
                 (A1) (A1) (B1) (B2) (A1) (A1) (B2) (A1) (B2) (A1)
                 (B2) (B2) (A1) (B1) (A1) (B2) (A1) (A2) (B2) (B1)
                 (B2) (A1) (A2) (B1) (A1) (B1) (A1) (B2) (A1) (B2)
                 (A1) (A1) (B2) (A1) (A1) (B2) (B2) (A1) (B2) (A1)
                 (B1) (B2) (A2) (A2) (B1) (A2) (A1) (B1) (A1) (B2)
                 (A1) (B2) (A1) (B1) (A2) (A1) (B2) (B1) (A1) (B1)
                 (B2) (A2) (B2) (A1) (B2) (B1) (B2) (A1) (A2) (A1)
                 (B1) (A1) (B2) (A2) (B1) (B2) (A2) (A1) (A1) (B2)
                 (B2) (A1) (A1) (A1) (B2) (A1) (B1) (A1) (B2) (A1)
                 (B2) (A2) (B1) (A2) (B1) (B2) (B1) (A1) (B2) (A1)
                 (B2) (A1) (B2) (A1) (A1) (B2) (A1) (A1) (B2) (B2)
                 (A1) (A1) (B2) (A1) (B2) (A1)
 ExpMin= 3.60D-02 ExpMax= 4.56D+03 ExpMxC= 6.82D+02 IAcc=3 IRadAn=         5 AccDes= 0.00D+00
 Harris functional with IExCor= 1009 and IRadAn=       5 diagonalized for initial guess.
 HarFok:  IExCor= 1009 AccDes= 0.00D+00 IRadAn=         5 IDoV= 1 UseB2=F ITyADJ=14
 ICtDFT=  3500011 ScaDFX=  1.000000  1.000000  1.000000  1.000000
 FoFCou: FMM=F IPFlag=           0 FMFlag=      100000 FMFlg1=           0
         NFxFlg=           0 DoJE=T BraDBF=F KetDBF=T FulRan=T
         wScrn=  0.000000 ICntrl=       500 IOpCl=  0 I1Cent=   200000004 NGrid=           0
         NMat0=    1 NMatS0=      1 NMatT0=    0 NMatD0=    1 NMtDS0=    0 NMtDT0=    0
 Petite list used in FoFCou.
 Keep R1 ints in memory in symmetry-blocked form, NReq=124767515.
 Requested convergence on RMS density matrix=1.00D-08 within 128 cycles.
 Requested convergence on MAX density matrix=1.00D-06.
 Requested convergence on             energy=1.00D-06.
 No special actions if energy rises.
 SCF Done:  E(RM062X) =  -231.549575837     A.U. after   15 cycles
            NFock= 15  Conv=0.96D-08     -V/T= 2.0040
 Calling FoFJK, ICntrl=      2127 FMM=F ISym2X=1 I1Cent= 0 IOpClX= 0 NMat=1 NMatS=1 NMatT=0.
 ***** Axes restored to original set *****
 -------------------------------------------------------------------
 Center     Atomic                   Forces (Hartrees/Bohr)
 Number     Number              X              Y              Z
 -------------------------------------------------------------------
      1        6           0.000283049    0.004733373   -0.000000000
      2        6          -0.006297186   -0.004476325   -0.000000000
      3        6           0.009762685    0.005250495    0.000000000
      4        6          -0.007206264   -0.002786000   -0.000000000
      5        6           0.004105135   -0.002373353   -0.000000000
      6        6          -0.001949418   -0.001048422    0.000000000
      7        1          -0.000123288   -0.000066306    0.000000000
      8        1           0.000969857    0.000779769    0.000000000
      9        1           0.000755934   -0.002280330    0.000000000
     10        1           0.001185249    0.000379274    0.000000000
     11        1          -0.001485752    0.001887825    0.000000000
 -------------------------------------------------------------------
 Cartesian Forces:  Max     0.009762685 RMS     0.003049047

 GradGradGradGradGradGradGradGradGradGradGradGradGradGradGradGradGradGrad
 Berny optimization.
 Using GEDIIS/GDIIS optimizer.
 FormGI is forming the generalized inverse of G from B-inverse, IUseBI=4.
 Internal  Forces:  Max     0.005673521 RMS     0.001840494
 Search for a local minimum.
 Step number   2 out of a maximum of   57
 All quantities printed in internal units (Hartrees-Bohrs-Radians)
 Mixed Optimization -- RFO/linear search
 Update second derivatives using D2CorX and points    1    2
 DE= -5.24D-03 DEPred=-4.66D-03 R= 1.12D+00
 TightC=F SS=  1.41D+00  RLast= 1.90D-01 DXNew= 5.0454D-01 5.6916D-01
 Trust test= 1.12D+00 RLast= 1.90D-01 DXMaxT set to 5.05D-01
 ITU=  1  0
 Use linear search instead of GDIIS.
     Eigenvalues ---    0.02099   0.02099   0.02099   0.02100   0.02101
     Eigenvalues ---    0.02104   0.02105   0.02110   0.15266   0.16000
     Eigenvalues ---    0.16000   0.16000   0.16237   0.20330   0.22000
     Eigenvalues ---    0.22031   0.35428   0.35713   0.35714   0.35779
     Eigenvalues ---    0.36134   0.41287   0.41612   0.45673   0.45748
     Eigenvalues ---    0.45901   0.48096
 RFO step:  Lambda=-3.85851902D-04 EMin= 2.09857388D-02
 Quartic linear search produced a step of  0.18060.
 Iteration  1 RMS(Cart)=  0.01021440 RMS(Int)=  0.00011130
 Iteration  2 RMS(Cart)=  0.00012503 RMS(Int)=  0.00007322
 Iteration  3 RMS(Cart)=  0.00000000 RMS(Int)=  0.00007322
 ClnCor:  largest displacement from symmetrization is 1.75D-12 for atom     7.
 Variable       Old X    -DE/DX   Delta X   Delta X   Delta X     New X
                                 (Linear)    (Quad)   (Total)
    R1        2.65200  -0.00251   0.00145  -0.00763  -0.00618   2.64582
    R2        2.62995   0.00238  -0.00258   0.00803   0.00536   2.63531
    R3        2.06361  -0.00081   0.00330  -0.00533  -0.00203   2.06157
    R4        2.66138   0.00567   0.00349   0.01195   0.01553   2.67691
    R5        2.06065   0.00190   0.00296   0.00388   0.00683   2.06748
    R6        2.66138   0.00567   0.00349   0.01195   0.01553   2.67691
    R7        2.65200  -0.00251   0.00145  -0.00763  -0.00618   2.64582
    R8        2.06065   0.00190   0.00296   0.00388   0.00683   2.06748
    R9        2.62995   0.00238  -0.00258   0.00803   0.00536   2.63531
   R10        2.06361  -0.00081   0.00330  -0.00533  -0.00203   2.06157
   R11        2.05335   0.00014   0.00145  -0.00070   0.00075   2.05410
    A1        2.09388   0.00002  -0.00002  -0.00066  -0.00080   2.09308
    A2        2.11141  -0.00098   0.00304  -0.00944  -0.00633   2.10508
    A3        2.07789   0.00096  -0.00302   0.01009   0.00713   2.08502
    A4        2.16740   0.00279   0.01318   0.00370   0.01696   2.18436
    A5        2.04411  -0.00291  -0.00965  -0.01041  -0.02010   2.02401
    A6        2.07168   0.00013  -0.00352   0.00670   0.00314   2.07481
    A7        1.97646  -0.00506  -0.02145  -0.00619  -0.02735   1.94911
    A8        2.16740   0.00279   0.01318   0.00370   0.01696   2.18436
    A9        2.07168   0.00013  -0.00352   0.00670   0.00314   2.07481
   A10        2.04411  -0.00291  -0.00965  -0.01041  -0.02010   2.02401
   A11        2.09388   0.00002  -0.00002  -0.00066  -0.00080   2.09308
   A12        2.11141  -0.00098   0.00304  -0.00944  -0.00633   2.10508
   A13        2.07789   0.00096  -0.00302   0.01009   0.00713   2.08502
   A14        2.06736  -0.00055  -0.00486   0.00009  -0.00499   2.06237
   A15        2.10792   0.00027   0.00243  -0.00005   0.00249   2.11041
   A16        2.10792   0.00027   0.00243  -0.00005   0.00249   2.11041
    D1       -0.00000  -0.00000   0.00000  -0.00000   0.00000   0.00000
    D2        3.14159   0.00000   0.00000   0.00000   0.00000   3.14159
    D3        3.14159  -0.00000   0.00000  -0.00000   0.00000   3.14159
    D4        0.00000   0.00000   0.00000   0.00000   0.00000   0.00000
    D5        0.00000  -0.00000   0.00000  -0.00000   0.00000   0.00000
    D6        3.14159  -0.00000   0.00000  -0.00000   0.00000   3.14159
    D7        3.14159   0.00000   0.00000   0.00000   0.00000   3.14159
    D8       -0.00000   0.00000   0.00000   0.00000   0.00000   0.00000
    D9       -0.00000   0.00000   0.00000   0.00000   0.00000   0.00000
   D10        3.14159  -0.00000   0.00000  -0.00000   0.00000   3.14159
   D11        0.00000  -0.00000   0.00000  -0.00000   0.00000   0.00000
   D12        3.14159   0.00000   0.00000   0.00000   0.00000   3.14159
   D13        0.00000  -0.00000   0.00000  -0.00000  -0.00000   0.00000
   D14        3.14159   0.00000   0.00000   0.00000   0.00000   3.14159
   D15        3.14159  -0.00000   0.00000  -0.00000   0.00000   3.14159
   D16       -0.00000   0.00000   0.00000   0.00000   0.00000   0.00000
   D17       -0.00000   0.00000   0.00000   0.00000   0.00000   0.00000
   D18        3.14159   0.00000   0.00000   0.00000   0.00000   3.14159
   D19        3.14159  -0.00000   0.00000  -0.00000   0.00000   3.14159
   D20        0.00000  -0.00000   0.00000  -0.00000   0.00000   0.00000
         Item               Value     Threshold  Converged?
 Maximum Force            0.005674     0.000450     NO 
 RMS     Force            0.001840     0.000300     NO 
 Maximum Displacement     0.034540     0.001800     NO 
 RMS     Displacement     0.010223     0.001200     NO 
 Predicted change in Energy=-3.266672D-04
 GradGradGradGradGradGradGradGradGradGradGradGradGradGradGradGradGradGrad

                          Input orientation:                          
 ---------------------------------------------------------------------
 Center     Atomic      Atomic             Coordinates (Angstroms)
 Number     Number       Type             X           Y           Z
 ---------------------------------------------------------------------
      1          6           0       -1.216648    1.187371   -0.000000
      2          6           0        0.027743    1.829080   -0.000000
      3          6           0        1.283494    1.173538   -0.000000
      4          6           0        1.138124   -0.235545    0.000000
      5          6           0       -0.083291   -0.919977    0.000000
      6          6           0       -1.281016   -0.205688    0.000000
      7          1           0       -2.238332   -0.720544    0.000000
      8          1           0       -0.108946   -2.010613    0.000000
      9          1           0        2.036859   -0.859444    0.000000
     10          1           0       -2.140719    1.767233   -0.000000
     11          1           0        0.002690    2.922857   -0.000000
 ---------------------------------------------------------------------
                    Distance matrix (angstroms):
                    1          2          3          4          5
     1  C    0.000000
     2  C    1.400108   0.000000
     3  C    2.500181   1.416561   0.000000
     4  C    2.751298   2.344275   1.416561   0.000000
     5  C    2.392783   2.751298   2.500181   1.400108   0.000000
     6  C    1.394545   2.419325   2.911868   2.419325   1.394545
     7  H    2.164249   3.411111   3.998850   3.411111   2.164249
     8  H    3.384392   3.842126   3.475300   2.169344   1.090938
     9  H    3.843796   3.356295   2.168081   1.094064   2.121014
    10  H    1.090938   2.169344   3.475300   3.842126   3.384392
    11  H    2.121014   1.094064   2.168081   3.356295   3.843796
                    6          7          8          9         10
     6  C    0.000000
     7  H    1.086982   0.000000
     8  H    2.152093   2.489691   0.000000
     9  H    3.381670   4.277447   2.435091   0.000000
    10  H    2.152093   2.489691   4.289548   4.934733   0.000000
    11  H    3.381670   4.277447   4.934733   4.294607   2.435091
                   11
    11  H    0.000000
 Stoichiometry    C6H5(1-)
 Framework group  C2V[C2(HCC),SGV(C4H4)]
 Deg. of freedom    10
 Full point group                 C2V     NOp   4
 Largest Abelian subgroup         C2V     NOp   4
 Largest concise Abelian subgroup C2      NOp   2
                         Standard orientation:                         
 ---------------------------------------------------------------------
 Center     Atomic      Atomic             Coordinates (Angstroms)
 Number     Number       Type             X           Y           Z
 ---------------------------------------------------------------------
      1          6           0       -0.000000    1.196392   -0.648334
      2          6           0       -0.000000    1.172137    0.751564
      3          6           0       -0.000000   -0.000000    1.547014
      4          6           0       -0.000000   -1.172137    0.751564
      5          6           0       -0.000000   -1.196392   -0.648334
      6          6           0        0.000000    0.000000   -1.364854
      7          1           0        0.000000    0.000000   -2.451836
      8          1           0        0.000000   -2.144774   -1.187516
      9          1           0        0.000000   -2.147304    1.247574
     10          1           0        0.000000    2.144774   -1.187516
     11          1           0        0.000000    2.147304    1.247574
 ---------------------------------------------------------------------
 Rotational constants (GHZ):           5.8838686           5.8299857           2.9284016
 Standard basis: 6-311++G(d,p) (5D, 7F)
 There are    75 symmetry adapted cartesian basis functions of A1  symmetry.
 There are    16 symmetry adapted cartesian basis functions of A2  symmetry.
 There are    25 symmetry adapted cartesian basis functions of B1  symmetry.
 There are    57 symmetry adapted cartesian basis functions of B2  symmetry.
 There are    71 symmetry adapted basis functions of A1  symmetry.
 There are    16 symmetry adapted basis functions of A2  symmetry.
 There are    25 symmetry adapted basis functions of B1  symmetry.
 There are    55 symmetry adapted basis functions of B2  symmetry.
   167 basis functions,   261 primitive gaussians,   173 cartesian basis functions
    21 alpha electrons       21 beta electrons
       nuclear repulsion energy       193.1796289756 Hartrees.
 NAtoms=   11 NActive=   11 NUniq=    7 SFac= 2.47D+00 NAtFMM=   60 NAOKFM=F Big=F
 Integral buffers will be    131072 words long.
 Raffenetti 2 integral format.
 Two-electron integral symmetry is turned on.
 One-electron integrals computed using PRISM.
 NBasis=   167 RedAO= T EigKep=  2.41D-06  NBF=    71    16    25    55
 NBsUse=   167 1.00D-06 EigRej= -1.00D+00 NBFU=    71    16    25    55
 Initial guess from the checkpoint file:  "frequency_chks/chlorobenzene_anion_product_Freq.chk"
 B after Tr=     0.000000   -0.000000   -0.000000
         Rot=    1.000000    0.000000   -0.000000   -0.000000 Ang=   0.00 deg.
 Initial guess orbital symmetries:
       Occupied  (A1) (B2) (A1) (B2) (A1) (A1) (A1) (B2) (A1) (B2)
                 (A1) (A1) (A1) (B2) (B2) (A1) (B1) (B2) (A2) (B1)
                 (A1)
       Virtual   (A1) (B2) (A1) (B2) (A1) (A2) (B1) (B1) (A1) (B2)
                 (A2) (A1) (B1) (B2) (A1) (A1) (B2) (A1) (B2) (B1)
                 (A2) (A1) (B1) (B2) (A1) (B2) (A1) (B2) (A1) (B2)
                 (A1) (A1) (B1) (B2) (A1) (A1) (B2) (A1) (B2) (B2)
                 (A1) (B2) (A1) (A1) (B1) (B2) (A1) (A2) (B2) (B1)
                 (B2) (A1) (A2) (B1) (A1) (B1) (A1) (B2) (A1) (B2)
                 (A1) (A1) (B2) (A1) (A1) (B2) (B2) (A1) (B2) (A1)
                 (B1) (B2) (A2) (A2) (B1) (A1) (A2) (B1) (A1) (B2)
                 (A1) (A1) (B2) (B1) (A2) (A1) (B2) (A1) (B1) (B1)
                 (B2) (A2) (A1) (B2) (B2) (B1) (A2) (A1) (B2) (A1)
                 (B1) (A1) (B2) (A2) (B1) (B2) (A2) (A1) (A1) (B2)
                 (A1) (B2) (A1) (A1) (A1) (B2) (B1) (A1) (B2) (A1)
                 (B2) (A2) (B1) (A2) (B1) (B2) (B1) (A1) (B2) (A1)
                 (B2) (B2) (A1) (A1) (A1) (B2) (A1) (A1) (B2) (B2)
                 (A1) (A1) (B2) (A1) (B2) (A1)
 ExpMin= 3.60D-02 ExpMax= 4.56D+03 ExpMxC= 6.82D+02 IAcc=3 IRadAn=         5 AccDes= 0.00D+00
 Harris functional with IExCor= 1009 and IRadAn=       5 diagonalized for initial guess.
 HarFok:  IExCor= 1009 AccDes= 0.00D+00 IRadAn=         5 IDoV= 1 UseB2=F ITyADJ=14
 ICtDFT=  3500011 ScaDFX=  1.000000  1.000000  1.000000  1.000000
 FoFCou: FMM=F IPFlag=           0 FMFlag=      100000 FMFlg1=           0
         NFxFlg=           0 DoJE=T BraDBF=F KetDBF=T FulRan=T
         wScrn=  0.000000 ICntrl=       500 IOpCl=  0 I1Cent=   200000004 NGrid=           0
         NMat0=    1 NMatS0=      1 NMatT0=    0 NMatD0=    1 NMtDS0=    0 NMtDT0=    0
 Petite list used in FoFCou.
 Keep R1 ints in memory in symmetry-blocked form, NReq=124767515.
 Requested convergence on RMS density matrix=1.00D-08 within 128 cycles.
 Requested convergence on MAX density matrix=1.00D-06.
 Requested convergence on             energy=1.00D-06.
 No special actions if energy rises.
 SCF Done:  E(RM062X) =  -231.549905707     A.U. after   14 cycles
            NFock= 14  Conv=0.63D-08     -V/T= 2.0042
 Calling FoFJK, ICntrl=      2127 FMM=F ISym2X=1 I1Cent= 0 IOpClX= 0 NMat=1 NMatS=1 NMatT=0.
 ***** Axes restored to original set *****
 -------------------------------------------------------------------
 Center     Atomic                   Forces (Hartrees/Bohr)
 Number     Number              X              Y              Z
 -------------------------------------------------------------------
      1        6           0.000039727   -0.000448340   -0.000000000
      2        6          -0.000607920    0.000259455   -0.000000000
      3        6           0.000394161    0.000211985    0.000000000
      4        6          -0.000118680   -0.000650230   -0.000000000
      5        6          -0.000352152    0.000280313   -0.000000000
      6        6          -0.000628072   -0.000337785    0.000000000
      7        1           0.000124926    0.000067187    0.000000000
      8        1           0.000343345    0.000398305    0.000000000
      9        1           0.000106782    0.000140741    0.000000000
     10        1           0.000521594    0.000066870    0.000000000
     11        1           0.000176290    0.000011498    0.000000000
 -------------------------------------------------------------------
 Cartesian Forces:  Max     0.000650230 RMS     0.000281953

 GradGradGradGradGradGradGradGradGradGradGradGradGradGradGradGradGradGrad
 Berny optimization.
 Using GEDIIS/GDIIS optimizer.
 FormGI is forming the generalized inverse of G from B-inverse, IUseBI=4.
 Internal  Forces:  Max     0.000522946 RMS     0.000196121
 Search for a local minimum.
 Step number   3 out of a maximum of   57
 All quantities printed in internal units (Hartrees-Bohrs-Radians)
 Mixed Optimization -- En-DIIS/RFO-DIIS
 Update second derivatives using D2CorX and points    1    2    3
 DE= -3.30D-04 DEPred=-3.27D-04 R= 1.01D+00
 TightC=F SS=  1.41D+00  RLast= 5.56D-02 DXNew= 8.4853D-01 1.6676D-01
 Trust test= 1.01D+00 RLast= 5.56D-02 DXMaxT set to 5.05D-01
 ITU=  1  1  0
 Use linear search instead of GDIIS.
     Eigenvalues ---    0.02099   0.02099   0.02099   0.02099   0.02101
     Eigenvalues ---    0.02104   0.02105   0.02110   0.14969   0.16000
     Eigenvalues ---    0.16000   0.16000   0.16318   0.20166   0.22000
     Eigenvalues ---    0.22573   0.35487   0.35713   0.35714   0.35779
     Eigenvalues ---    0.36273   0.41244   0.41432   0.45671   0.45748
     Eigenvalues ---    0.45900   0.47881
 RFO step:  Lambda=-8.42989372D-06 EMin= 2.09857388D-02
 Quartic linear search produced a step of  0.02755.
 Iteration  1 RMS(Cart)=  0.00127910 RMS(Int)=  0.00000173
 Iteration  2 RMS(Cart)=  0.00000204 RMS(Int)=  0.00000055
 Iteration  3 RMS(Cart)=  0.00000000 RMS(Int)=  0.00000055
 ClnCor:  largest displacement from symmetrization is 5.84D-13 for atom    11.
 Variable       Old X    -DE/DX   Delta X   Delta X   Delta X     New X
                                 (Linear)    (Quad)   (Total)
    R1        2.64582  -0.00003  -0.00017   0.00004  -0.00013   2.64569
    R2        2.63531  -0.00003   0.00015  -0.00019  -0.00004   2.63526
    R3        2.06157  -0.00041  -0.00006  -0.00109  -0.00114   2.06043
    R4        2.67691   0.00016   0.00043   0.00018   0.00061   2.67753
    R5        2.06748   0.00001   0.00019  -0.00004   0.00015   2.06763
    R6        2.67691   0.00016   0.00043   0.00018   0.00061   2.67753
    R7        2.64582  -0.00003  -0.00017   0.00004  -0.00013   2.64569
    R8        2.06748   0.00001   0.00019  -0.00004   0.00015   2.06763
    R9        2.63531  -0.00003   0.00015  -0.00019  -0.00004   2.63526
   R10        2.06157  -0.00041  -0.00006  -0.00109  -0.00114   2.06043
   R11        2.05410  -0.00014   0.00002  -0.00040  -0.00038   2.05372
    A1        2.09308   0.00036  -0.00002   0.00163   0.00161   2.09469
    A2        2.10508  -0.00052  -0.00017  -0.00287  -0.00305   2.10203
    A3        2.08502   0.00017   0.00020   0.00124   0.00144   2.08646
    A4        2.18436   0.00001   0.00047  -0.00005   0.00041   2.18478
    A5        2.02401   0.00018  -0.00055   0.00133   0.00078   2.02479
    A6        2.07481  -0.00018   0.00009  -0.00128  -0.00119   2.07362
    A7        1.94911  -0.00024  -0.00075  -0.00084  -0.00159   1.94752
    A8        2.18436   0.00001   0.00047  -0.00005   0.00041   2.18478
    A9        2.07481  -0.00018   0.00009  -0.00128  -0.00119   2.07362
   A10        2.02401   0.00018  -0.00055   0.00133   0.00078   2.02479
   A11        2.09308   0.00036  -0.00002   0.00163   0.00161   2.09469
   A12        2.10508  -0.00052  -0.00017  -0.00287  -0.00305   2.10203
   A13        2.08502   0.00017   0.00020   0.00124   0.00144   2.08646
   A14        2.06237  -0.00049  -0.00014  -0.00232  -0.00246   2.05991
   A15        2.11041   0.00024   0.00007   0.00116   0.00123   2.11164
   A16        2.11041   0.00024   0.00007   0.00116   0.00123   2.11164
    D1       -0.00000  -0.00000   0.00000  -0.00000   0.00000   0.00000
    D2        3.14159   0.00000   0.00000   0.00000   0.00000   3.14159
    D3        3.14159  -0.00000   0.00000  -0.00000   0.00000   3.14159
    D4        0.00000   0.00000   0.00000   0.00000   0.00000   0.00000
    D5        0.00000  -0.00000   0.00000  -0.00000   0.00000   0.00000
    D6        3.14159  -0.00000   0.00000  -0.00000   0.00000   3.14159
    D7        3.14159   0.00000   0.00000   0.00000   0.00000   3.14159
    D8       -0.00000   0.00000   0.00000   0.00000   0.00000   0.00000
    D9       -0.00000   0.00000   0.00000   0.00000   0.00000   0.00000
   D10        3.14159  -0.00000   0.00000  -0.00000   0.00000   3.14159
   D11        0.00000  -0.00000   0.00000  -0.00000   0.00000   0.00000
   D12        3.14159   0.00000   0.00000   0.00000   0.00000   3.14159
   D13        0.00000  -0.00000   0.00000  -0.00000   0.00000   0.00000
   D14        3.14159   0.00000   0.00000   0.00000   0.00000   3.14159
   D15        3.14159  -0.00000   0.00000  -0.00000   0.00000   3.14159
   D16       -0.00000   0.00000   0.00000   0.00000   0.00000   0.00000
   D17       -0.00000   0.00000   0.00000   0.00000   0.00000   0.00000
   D18        3.14159   0.00000   0.00000   0.00000   0.00000   3.14159
   D19        3.14159  -0.00000   0.00000  -0.00000   0.00000   3.14159
   D20        0.00000  -0.00000   0.00000  -0.00000   0.00000   0.00000
         Item               Value     Threshold  Converged?
 Maximum Force            0.000523     0.000450     NO 
 RMS     Force            0.000196     0.000300     YES
 Maximum Displacement     0.004020     0.001800     NO 
 RMS     Displacement     0.001279     0.001200     NO 
 Predicted change in Energy=-4.450718D-06
 GradGradGradGradGradGradGradGradGradGradGradGradGradGradGradGradGradGrad

                          Input orientation:                          
 ---------------------------------------------------------------------
 Center     Atomic      Atomic             Coordinates (Angstroms)
 Number     Number       Type             X           Y           Z
 ---------------------------------------------------------------------
      1          6           0       -1.216590    1.186380   -0.000000
      2          6           0        0.027494    1.828532   -0.000000
      3          6           0        1.284054    1.173839   -0.000000
      4          6           0        1.137530   -0.235450    0.000000
      5          6           0       -0.084085   -0.919381    0.000000
      6          6           0       -1.282667   -0.206575    0.000000
      7          1           0       -2.239807   -0.721337    0.000000
      8          1           0       -0.106819   -2.009478    0.000000
      9          1           0        2.036575   -0.859039    0.000000
     10          1           0       -2.138599    1.768382   -0.000000
     11          1           0        0.002872    2.922397   -0.000000
 ---------------------------------------------------------------------
                    Distance matrix (angstroms):
                    1          2          3          4          5
     1  C    0.000000
     2  C    1.400037   0.000000
     3  C    2.500675   1.416886   0.000000
     4  C    2.750178   2.343544   1.416886   0.000000
     5  C    2.390982   2.750178   2.500675   1.400037   0.000000
     6  C    1.394522   2.420369   2.914379   2.420369   1.394522
     7  H    2.164800   3.412109   4.001161   3.412109   2.164800
     8  H    3.383061   3.840359   3.473908   2.166929   1.090334
     9  H    3.842762   3.355509   2.167690   1.094142   2.121519
    10  H    1.090334   2.166929   3.473908   3.840359   3.383061
    11  H    2.121519   1.094142   2.167690   3.355509   3.842762
                    6          7          8          9         10
     6  C    0.000000
     7  H    1.086783   0.000000
     8  H    2.152458   2.491775   0.000000
     9  H    3.382761   4.278598   2.432622   0.000000
    10  H    2.152458   2.491775   4.289564   4.933094   0.000000
    11  H    3.382761   4.278598   4.933094   4.293623   2.432622
                   11
    11  H    0.000000
 Stoichiometry    C6H5(1-)
 Framework group  C2V[C2(HCC),SGV(C4H4)]
 Deg. of freedom    10
 Full point group                 C2V     NOp   4
 Largest Abelian subgroup         C2V     NOp   4
 Largest concise Abelian subgroup C2      NOp   2
                         Standard orientation:                         
 ---------------------------------------------------------------------
 Center     Atomic      Atomic             Coordinates (Angstroms)
 Number     Number       Type             X           Y           Z
 ---------------------------------------------------------------------
      1          6           0       -0.000000    1.195491   -0.648382
      2          6           0       -0.000000    1.171772    0.751455
      3          6           0       -0.000000    0.000000    1.548020
      4          6           0       -0.000000   -1.171772    0.751455
      5          6           0       -0.000000   -1.195491   -0.648382
      6          6           0        0.000000   -0.000000   -1.366359
      7          1           0        0.000000   -0.000000   -2.453142
      8          1           0        0.000000   -2.144782   -1.184735
      9          1           0        0.000000   -2.146812    1.247886
     10          1           0        0.000000    2.144782   -1.184735
     11          1           0        0.000000    2.146812    1.247886
 ---------------------------------------------------------------------
 Rotational constants (GHZ):           5.8891096           5.8246610           2.9283540
 Standard basis: 6-311++G(d,p) (5D, 7F)
 There are    75 symmetry adapted cartesian basis functions of A1  symmetry.
 There are    16 symmetry adapted cartesian basis functions of A2  symmetry.
 There are    25 symmetry adapted cartesian basis functions of B1  symmetry.
 There are    57 symmetry adapted cartesian basis functions of B2  symmetry.
 There are    71 symmetry adapted basis functions of A1  symmetry.
 There are    16 symmetry adapted basis functions of A2  symmetry.
 There are    25 symmetry adapted basis functions of B1  symmetry.
 There are    55 symmetry adapted basis functions of B2  symmetry.
   167 basis functions,   261 primitive gaussians,   173 cartesian basis functions
    21 alpha electrons       21 beta electrons
       nuclear repulsion energy       193.1808340162 Hartrees.
 NAtoms=   11 NActive=   11 NUniq=    7 SFac= 2.47D+00 NAtFMM=   60 NAOKFM=F Big=F
 Integral buffers will be    131072 words long.
 Raffenetti 2 integral format.
 Two-electron integral symmetry is turned on.
 One-electron integrals computed using PRISM.
 NBasis=   167 RedAO= T EigKep=  2.41D-06  NBF=    71    16    25    55
 NBsUse=   167 1.00D-06 EigRej= -1.00D+00 NBFU=    71    16    25    55
 Initial guess from the checkpoint file:  "frequency_chks/chlorobenzene_anion_product_Freq.chk"
 B after Tr=     0.000000    0.000000   -0.000000
         Rot=    1.000000    0.000000    0.000000    0.000000 Ang=   0.00 deg.
 Initial guess orbital symmetries:
       Occupied  (A1) (B2) (A1) (B2) (A1) (A1) (A1) (B2) (A1) (B2)
                 (A1) (A1) (A1) (B2) (B2) (A1) (B1) (B2) (A2) (B1)
                 (A1)
       Virtual   (A1) (B2) (A1) (B2) (A1) (A2) (B1) (B1) (A1) (B2)
                 (A2) (A1) (B1) (B2) (A1) (A1) (B2) (A1) (B2) (B1)
                 (A2) (A1) (B1) (B2) (A1) (B2) (A1) (B2) (A1) (B2)
                 (A1) (A1) (B1) (B2) (A1) (A1) (B2) (A1) (B2) (B2)
                 (A1) (B2) (A1) (A1) (B1) (B2) (A1) (A2) (B2) (B1)
                 (B2) (A1) (A2) (B1) (A1) (B1) (A1) (B2) (A1) (B2)
                 (A1) (A1) (B2) (A1) (A1) (B2) (B2) (A1) (B2) (A1)
                 (B1) (B2) (A2) (A2) (B1) (A1) (A2) (B1) (A1) (B2)
                 (A1) (A1) (B2) (B1) (A2) (A1) (B2) (A1) (B1) (B1)
                 (B2) (A2) (A1) (B2) (B2) (A2) (B1) (A1) (B2) (A1)
                 (B1) (A1) (B2) (A2) (B1) (B2) (A2) (A1) (A1) (B2)
                 (A1) (B2) (A1) (A1) (A1) (B2) (B1) (A1) (B2) (A1)
                 (B2) (A2) (B1) (A2) (B1) (B2) (B1) (A1) (B2) (B2)
                 (A1) (B2) (A1) (A1) (A1) (B2) (A1) (A1) (B2) (B2)
                 (A1) (A1) (B2) (A1) (B2) (A1)
 Keep R1 ints in memory in symmetry-blocked form, NReq=124767515.
 Requested convergence on RMS density matrix=1.00D-08 within 128 cycles.
 Requested convergence on MAX density matrix=1.00D-06.
 Requested convergence on             energy=1.00D-06.
 No special actions if energy rises.
 SCF Done:  E(RM062X) =  -231.549910854     A.U. after   13 cycles
            NFock= 13  Conv=0.22D-08     -V/T= 2.0042
 Calling FoFJK, ICntrl=      2127 FMM=F ISym2X=1 I1Cent= 0 IOpClX= 0 NMat=1 NMatS=1 NMatT=0.
 ***** Axes restored to original set *****
 -------------------------------------------------------------------
 Center     Atomic                   Forces (Hartrees/Bohr)
 Number     Number              X              Y              Z
 -------------------------------------------------------------------
      1        6           0.000050674   -0.000162782   -0.000000000
      2        6          -0.000163479    0.000189172   -0.000000000
      3        6           0.000003409    0.000001833    0.000000000
      4        6           0.000067702   -0.000240682   -0.000000000
      5        6          -0.000107874    0.000132019   -0.000000000
      6        6          -0.000070228   -0.000037769    0.000000000
      7        1           0.000064717    0.000034805    0.000000000
      8        1           0.000114118   -0.000018623    0.000000000
      9        1          -0.000032624    0.000052972    0.000000000
     10        1           0.000047376    0.000105476    0.000000000
     11        1           0.000026209   -0.000056422    0.000000000
 -------------------------------------------------------------------
 Cartesian Forces:  Max     0.000240682 RMS     0.000083377

 GradGradGradGradGradGradGradGradGradGradGradGradGradGradGradGradGradGrad
 Berny optimization.
 Using GEDIIS/GDIIS optimizer.
 FormGI is forming the generalized inverse of G from B-inverse, IUseBI=4.
 Internal  Forces:  Max     0.000140411 RMS     0.000046777
 Search for a local minimum.
 Step number   4 out of a maximum of   57
 All quantities printed in internal units (Hartrees-Bohrs-Radians)
 Mixed Optimization -- En-DIIS/RFO-DIIS
 Swapping is turned off.
 Update second derivatives using D2CorX and points    1    2    3    4
 DE= -5.15D-06 DEPred=-4.45D-06 R= 1.16D+00
 TightC=F SS=  1.41D+00  RLast= 6.89D-03 DXNew= 8.4853D-01 2.0668D-02
 Trust test= 1.16D+00 RLast= 6.89D-03 DXMaxT set to 5.05D-01
 ITU=  1  1  1  0
     Eigenvalues ---    0.02099   0.02099   0.02099   0.02099   0.02101
     Eigenvalues ---    0.02104   0.02105   0.02110   0.12415   0.15757
     Eigenvalues ---    0.16000   0.16000   0.16000   0.21170   0.22000
     Eigenvalues ---    0.22203   0.35427   0.35640   0.35713   0.35779
     Eigenvalues ---    0.37343   0.41235   0.41271   0.45703   0.45748
     Eigenvalues ---    0.45900   0.48071
 En-DIIS/RFO-DIIS/Sim-DIIS IScMMF=       -3 using points:     4    3
 RFO step:  Lambda=-6.25712346D-07.
 Use linear search instead of GDIIS.
 RFO step:  Lambda=-3.68516721D-07 EMin= 2.09857388D-02
 Quartic linear search produced a step of  0.18470.
 Iteration  1 RMS(Cart)=  0.00036775 RMS(Int)=  0.00000018
 Iteration  2 RMS(Cart)=  0.00000018 RMS(Int)=  0.00000001
 ClnCor:  largest displacement from symmetrization is 4.37D-13 for atom    11.
 Variable       Old X    -DE/DX   Delta X   Delta X   Delta X     New X
                                 (Linear)    (Quad)   (Total)
    R1        2.64569  -0.00006  -0.00002  -0.00012  -0.00014   2.64555
    R2        2.63526   0.00001  -0.00001   0.00002   0.00001   2.63528
    R3        2.06043   0.00002  -0.00021   0.00024   0.00003   2.06046
    R4        2.67753   0.00006   0.00011   0.00008   0.00019   2.67772
    R5        2.06763  -0.00006   0.00003  -0.00020  -0.00017   2.06746
    R6        2.67753   0.00006   0.00011   0.00008   0.00019   2.67772
    R7        2.64569  -0.00006  -0.00002  -0.00012  -0.00014   2.64555
    R8        2.06763  -0.00006   0.00003  -0.00020  -0.00017   2.06746
    R9        2.63526   0.00001  -0.00001   0.00002   0.00001   2.63528
   R10        2.06043   0.00002  -0.00021   0.00024   0.00003   2.06046
   R11        2.05372  -0.00007  -0.00007  -0.00018  -0.00025   2.05347
    A1        2.09469   0.00004   0.00030  -0.00001   0.00029   2.09498
    A2        2.10203  -0.00014  -0.00056  -0.00051  -0.00108   2.10095
    A3        2.08646   0.00010   0.00027   0.00052   0.00079   2.08725
    A4        2.18478  -0.00005   0.00008  -0.00027  -0.00019   2.18458
    A5        2.02479   0.00005   0.00014   0.00017   0.00031   2.02510
    A6        2.07362   0.00000  -0.00022   0.00010  -0.00012   2.07350
    A7        1.94752   0.00004  -0.00029   0.00038   0.00009   1.94761
    A8        2.18478  -0.00005   0.00008  -0.00027  -0.00019   2.18458
    A9        2.07362   0.00000  -0.00022   0.00010  -0.00012   2.07350
   A10        2.02479   0.00005   0.00014   0.00017   0.00031   2.02510
   A11        2.09469   0.00004   0.00030  -0.00001   0.00029   2.09498
   A12        2.10203  -0.00014  -0.00056  -0.00051  -0.00108   2.10095
   A13        2.08646   0.00010   0.00027   0.00052   0.00079   2.08725
   A14        2.05991  -0.00002  -0.00045   0.00017  -0.00028   2.05963
   A15        2.11164   0.00001   0.00023  -0.00009   0.00014   2.11178
   A16        2.11164   0.00001   0.00023  -0.00009   0.00014   2.11178
    D1        0.00000  -0.00000   0.00000  -0.00000   0.00000   0.00000
    D2        3.14159   0.00000   0.00000   0.00000   0.00000   3.14159
    D3        3.14159  -0.00000   0.00000  -0.00000   0.00000   3.14159
    D4        0.00000   0.00000   0.00000   0.00000   0.00000   0.00000
    D5        0.00000  -0.00000   0.00000  -0.00000   0.00000   0.00000
    D6        3.14159  -0.00000   0.00000  -0.00000   0.00000   3.14159
    D7        3.14159   0.00000   0.00000   0.00000   0.00000   3.14159
    D8       -0.00000   0.00000   0.00000   0.00000   0.00000   0.00000
    D9       -0.00000   0.00000   0.00000   0.00000   0.00000   0.00000
   D10        3.14159  -0.00000   0.00000  -0.00000   0.00000   3.14159
   D11        0.00000  -0.00000   0.00000  -0.00000   0.00000   0.00000
   D12        3.14159   0.00000   0.00000   0.00000   0.00000   3.14159
   D13       -0.00000  -0.00000   0.00000  -0.00000   0.00000   0.00000
   D14        3.14159   0.00000   0.00000   0.00000   0.00000   3.14159
   D15        3.14159  -0.00000   0.00000  -0.00000   0.00000   3.14159
   D16       -0.00000   0.00000   0.00000   0.00000   0.00000   0.00000
   D17       -0.00000   0.00000   0.00000   0.00000   0.00000   0.00000
   D18        3.14159   0.00000   0.00000   0.00000   0.00000   3.14159
   D19        3.14159  -0.00000   0.00000  -0.00000   0.00000   3.14159
   D20        0.00000  -0.00000   0.00000  -0.00000   0.00000   0.00000
         Item               Value     Threshold  Converged?
 Maximum Force            0.000140     0.000450     YES
 RMS     Force            0.000047     0.000300     YES
 Maximum Displacement     0.001608     0.001800     YES
 RMS     Displacement     0.000368     0.001200     YES
 Predicted change in Energy=-3.128574D-07
 Optimization completed.
    -- Stationary point found.
                           ----------------------------
                           !   Optimized Parameters   !
                           ! (Angstroms and Degrees)  !
 --------------------------                            --------------------------
 ! Name  Definition              Value          Derivative Info.                !
 --------------------------------------------------------------------------------
 ! R1    R(1,2)                  1.4            -DE/DX =   -0.0001              !
 ! R2    R(1,6)                  1.3945         -DE/DX =    0.0                 !
 ! R3    R(1,10)                 1.0903         -DE/DX =    0.0                 !
 ! R4    R(2,3)                  1.4169         -DE/DX =    0.0001              !
 ! R5    R(2,11)                 1.0941         -DE/DX =   -0.0001              !
 ! R6    R(3,4)                  1.4169         -DE/DX =    0.0001              !
 ! R7    R(4,5)                  1.4            -DE/DX =   -0.0001              !
 ! R8    R(4,9)                  1.0941         -DE/DX =   -0.0001              !
 ! R9    R(5,6)                  1.3945         -DE/DX =    0.0                 !
 ! R10   R(5,8)                  1.0903         -DE/DX =    0.0                 !
 ! R11   R(6,7)                  1.0868         -DE/DX =   -0.0001              !
 ! A1    A(2,1,6)              120.0171         -DE/DX =    0.0                 !
 ! A2    A(2,1,10)             120.4374         -DE/DX =   -0.0001              !
 ! A3    A(6,1,10)             119.5456         -DE/DX =    0.0001              !
 ! A4    A(1,2,3)              125.1784         -DE/DX =   -0.0001              !
 ! A5    A(1,2,11)             116.0117         -DE/DX =    0.0001              !
 ! A6    A(3,2,11)             118.8099         -DE/DX =    0.0                 !
 ! A7    A(2,3,4)              111.5847         -DE/DX =    0.0                 !
 ! A8    A(3,4,5)              125.1784         -DE/DX =   -0.0001              !
 ! A9    A(3,4,9)              118.8099         -DE/DX =    0.0                 !
 ! A10   A(5,4,9)              116.0117         -DE/DX =    0.0001              !
 ! A11   A(4,5,6)              120.0171         -DE/DX =    0.0                 !
 ! A12   A(4,5,8)              120.4374         -DE/DX =   -0.0001              !
 ! A13   A(6,5,8)              119.5456         -DE/DX =    0.0001              !
 ! A14   A(1,6,5)              118.0244         -DE/DX =    0.0                 !
 ! A15   A(1,6,7)              120.9878         -DE/DX =    0.0                 !
 ! A16   A(5,6,7)              120.9878         -DE/DX =    0.0                 !
 ! D1    D(6,1,2,3)              0.0            -DE/DX =    0.0                 !
 ! D2    D(6,1,2,11)           180.0            -DE/DX =    0.0                 !
 ! D3    D(10,1,2,3)           180.0            -DE/DX =    0.0                 !
 ! D4    D(10,1,2,11)            0.0            -DE/DX =    0.0                 !
 ! D5    D(2,1,6,5)              0.0            -DE/DX =    0.0                 !
 ! D6    D(2,1,6,7)            180.0            -DE/DX =    0.0                 !
 ! D7    D(10,1,6,5)           180.0            -DE/DX =    0.0                 !
 ! D8    D(10,1,6,7)             0.0            -DE/DX =    0.0                 !
 ! D9    D(1,2,3,4)              0.0            -DE/DX =    0.0                 !
 ! D10   D(11,2,3,4)           180.0            -DE/DX =    0.0                 !
 ! D11   D(2,3,4,5)              0.0            -DE/DX =    0.0                 !
 ! D12   D(2,3,4,9)            180.0            -DE/DX =    0.0                 !
 ! D13   D(3,4,5,6)              0.0            -DE/DX =    0.0                 !
 ! D14   D(3,4,5,8)            180.0            -DE/DX =    0.0                 !
 ! D15   D(9,4,5,6)            180.0            -DE/DX =    0.0                 !
 ! D16   D(9,4,5,8)              0.0            -DE/DX =    0.0                 !
 ! D17   D(4,5,6,1)              0.0            -DE/DX =    0.0                 !
 ! D18   D(4,5,6,7)            180.0            -DE/DX =    0.0                 !
 ! D19   D(8,5,6,1)            180.0            -DE/DX =    0.0                 !
 ! D20   D(8,5,6,7)              0.0            -DE/DX =    0.0                 !
 --------------------------------------------------------------------------------
 GradGradGradGradGradGradGradGradGradGradGradGradGradGradGradGradGradGrad

                          Input orientation:                          
 ---------------------------------------------------------------------
 Center     Atomic      Atomic             Coordinates (Angstroms)
 Number     Number       Type             X           Y           Z
 ---------------------------------------------------------------------
      1          6           0       -1.216590    1.186380   -0.000000
      2          6           0        0.027494    1.828532   -0.000000
      3          6           0        1.284054    1.173839   -0.000000
      4          6           0        1.137530   -0.235450    0.000000
      5          6           0       -0.084085   -0.919381    0.000000
      6          6           0       -1.282667   -0.206575    0.000000
      7          1           0       -2.239807   -0.721337    0.000000
      8          1           0       -0.106819   -2.009478    0.000000
      9          1           0        2.036575   -0.859039    0.000000
     10          1           0       -2.138599    1.768382   -0.000000
     11          1           0        0.002872    2.922397   -0.000000
 ---------------------------------------------------------------------
                    Distance matrix (angstroms):
                    1          2          3          4          5
     1  C    0.000000
     2  C    1.400037   0.000000
     3  C    2.500675   1.416886   0.000000
     4  C    2.750178   2.343544   1.416886   0.000000
     5  C    2.390982   2.750178   2.500675   1.400037   0.000000
     6  C    1.394522   2.420369   2.914379   2.420369   1.394522
     7  H    2.164800   3.412109   4.001161   3.412109   2.164800
     8  H    3.383061   3.840359   3.473908   2.166929   1.090334
     9  H    3.842762   3.355509   2.167690   1.094142   2.121519
    10  H    1.090334   2.166929   3.473908   3.840359   3.383061
    11  H    2.121519   1.094142   2.167690   3.355509   3.842762
                    6          7          8          9         10
     6  C    0.000000
     7  H    1.086783   0.000000
     8  H    2.152458   2.491775   0.000000
     9  H    3.382761   4.278598   2.432622   0.000000
    10  H    2.152458   2.491775   4.289564   4.933094   0.000000
    11  H    3.382761   4.278598   4.933094   4.293623   2.432622
                   11
    11  H    0.000000
 Stoichiometry    C6H5(1-)
 Framework group  C2V[C2(HCC),SGV(C4H4)]
 Deg. of freedom    10
 Full point group                 C2V     NOp   4
 Largest Abelian subgroup         C2V     NOp   4
 Largest concise Abelian subgroup C2      NOp   2
                         Standard orientation:                         
 ---------------------------------------------------------------------
 Center     Atomic      Atomic             Coordinates (Angstroms)
 Number     Number       Type             X           Y           Z
 ---------------------------------------------------------------------
      1          6           0       -0.000000    1.195491   -0.648382
      2          6           0        0.000000    1.171772    0.751455
      3          6           0        0.000000   -0.000000    1.548020
      4          6           0       -0.000000   -1.171772    0.751455
      5          6           0       -0.000000   -1.195491   -0.648382
      6          6           0       -0.000000    0.000000   -1.366359
      7          1           0       -0.000000    0.000000   -2.453142
      8          1           0       -0.000000   -2.144782   -1.184735
      9          1           0        0.000000   -2.146812    1.247886
     10          1           0        0.000000    2.144782   -1.184735
     11          1           0        0.000000    2.146812    1.247886
 ---------------------------------------------------------------------
 Rotational constants (GHZ):           5.8891096           5.8246610           2.9283540

 **********************************************************************

            Population analysis using the SCF Density.

 **********************************************************************

 Orbital symmetries:
       Occupied  (A1) (B2) (A1) (B2) (A1) (A1) (A1) (B2) (A1) (B2)
                 (A1) (A1) (A1) (B2) (B2) (A1) (B1) (B2) (A2) (B1)
                 (A1)
       Virtual   (A1) (B2) (A1) (B2) (A1) (A2) (B1) (B1) (A1) (B2)
                 (A2) (A1) (B1) (B2) (A1) (A1) (B2) (A1) (B2) (B1)
                 (A2) (A1) (B1) (B2) (A1) (B2) (A1) (B2) (A1) (B2)
                 (A1) (A1) (B1) (B2) (A1) (A1) (B2) (A1) (B2) (B2)
                 (A1) (B2) (A1) (A1) (B1) (B2) (A1) (A2) (B2) (B1)
                 (B2) (A1) (A2) (B1) (A1) (B1) (A1) (B2) (A1) (B2)
                 (A1) (A1) (B2) (A1) (A1) (B2) (B2) (A1) (B2) (A1)
                 (B1) (B2) (A2) (A2) (B1) (A1) (A2) (B1) (A1) (B2)
                 (A1) (A1) (B2) (B1) (A2) (A1) (B2) (A1) (B1) (B1)
                 (B2) (A2) (A1) (B2) (B2) (A2) (B1) (A1) (B2) (A1)
                 (B1) (A1) (B2) (A2) (B1) (B2) (A2) (A1) (A1) (B2)
                 (A1) (B2) (A1) (A1) (A1) (B2) (B1) (A1) (B2) (A1)
                 (B2) (A2) (B1) (A2) (B1) (B2) (B1) (A1) (B2) (B2)
                 (A1) (B2) (A1) (A1) (A1) (B2) (A1) (A1) (B2) (B2)
                 (A1) (A1) (B2) (A1) (B2) (A1)
 The electronic state is 1-A1.
 Alpha  occ. eigenvalues --  -10.36456 -10.36276 -10.36259 -10.34232 -10.34232
 Alpha  occ. eigenvalues --  -10.29472  -0.76021  -0.64731  -0.63047  -0.48599
 Alpha  occ. eigenvalues --   -0.47809  -0.40173  -0.33174  -0.30769  -0.29477
 Alpha  occ. eigenvalues --   -0.25955  -0.24517  -0.19154  -0.11928  -0.10030
 Alpha  occ. eigenvalues --   -0.02956
 Alpha virt. eigenvalues --    0.10408   0.11268   0.12325   0.13530   0.14327
 Alpha virt. eigenvalues --    0.19592   0.20219   0.20981   0.21800   0.23104
 Alpha virt. eigenvalues --    0.23190   0.24273   0.24599   0.24822   0.24974
 Alpha virt. eigenvalues --    0.25512   0.27646   0.27693   0.28128   0.28355
 Alpha virt. eigenvalues --    0.28895   0.29336   0.30112   0.30844   0.31964
 Alpha virt. eigenvalues --    0.32420   0.32813   0.36705   0.36806   0.37248
 Alpha virt. eigenvalues --    0.40040   0.40933   0.41552   0.45214   0.46379
 Alpha virt. eigenvalues --    0.47085   0.48070   0.52499   0.54594   0.56745
 Alpha virt. eigenvalues --    0.57487   0.66704   0.67909   0.73301   0.73856
 Alpha virt. eigenvalues --    0.75092   0.76355   0.77891   0.78890   0.79472
 Alpha virt. eigenvalues --    0.79992   0.80488   0.83417   0.84331   0.85746
 Alpha virt. eigenvalues --    0.90625   0.92008   0.93744   0.94914   0.96052
 Alpha virt. eigenvalues --    0.99295   1.01220   1.03948   1.04663   1.06182
 Alpha virt. eigenvalues --    1.08114   1.10552   1.11890   1.12559   1.18604
 Alpha virt. eigenvalues --    1.18888   1.23256   1.26206   1.32539   1.34542
 Alpha virt. eigenvalues --    1.38555   1.40090   1.43675   1.55825   1.68978
 Alpha virt. eigenvalues --    1.71960   1.74712   1.76540   1.78447   1.79303
 Alpha virt. eigenvalues --    1.85797   1.87207   1.87831   1.90330   1.93313
 Alpha virt. eigenvalues --    1.96830   1.99073   2.03189   2.04854   2.10581
 Alpha virt. eigenvalues --    2.14245   2.14879   2.15132   2.16340   2.20572
 Alpha virt. eigenvalues --    2.24232   2.24863   2.25410   2.28140   2.47993
 Alpha virt. eigenvalues --    2.50932   2.55522   2.58962   2.62932   2.69227
 Alpha virt. eigenvalues --    2.71723   2.72718   2.81202   2.85818   2.89073
 Alpha virt. eigenvalues --    2.90054   2.90754   2.92298   2.94019   2.99840
 Alpha virt. eigenvalues --    3.01069   3.03411   3.04982   3.13749   3.15876
 Alpha virt. eigenvalues --    3.16910   3.32163   3.34927   3.36051   3.58698
 Alpha virt. eigenvalues --    3.59806   3.71040   3.71634   3.76532   4.01057
 Alpha virt. eigenvalues --    4.20161   4.25124   4.35177   4.36106   4.97920
 Alpha virt. eigenvalues --   23.83079  24.20241  24.21233  24.32009  24.34249
 Alpha virt. eigenvalues --   24.41549
          Condensed to atoms (all electrons):
               1          2          3          4          5          6
     1  C    5.946928  -0.173224   0.450684  -0.567836   0.582730  -0.514628
     2  C   -0.173224   5.888297  -0.107557   0.536582  -0.567836   0.896847
     3  C    0.450684  -0.107557   5.983523  -0.107557   0.450684  -1.142696
     4  C   -0.567836   0.536582  -0.107557   5.888297  -0.173224   0.896847
     5  C    0.582730  -0.567836   0.450684  -0.173224   5.946928  -0.514628
     6  C   -0.514628   0.896847  -1.142696   0.896847  -0.514628   6.732042
     7  H   -0.003560   0.003413  -0.029473   0.003413  -0.003560   0.351346
     8  H    0.076684  -0.087878   0.135280  -0.078880   0.365982  -0.201122
     9  H    0.013098  -0.018148   0.065820   0.347446  -0.136605  -0.009828
    10  H    0.365982  -0.078880   0.135280  -0.087878   0.076684  -0.201122
    11  H   -0.136605   0.347446   0.065820  -0.018148   0.013098  -0.009828
               7          8          9         10         11
     1  C   -0.003560   0.076684   0.013098   0.365982  -0.136605
     2  C    0.003413  -0.087878  -0.018148  -0.078880   0.347446
     3  C   -0.029473   0.135280   0.065820   0.135280   0.065820
     4  C    0.003413  -0.078880   0.347446  -0.087878  -0.018148
     5  C   -0.003560   0.365982  -0.136605   0.076684   0.013098
     6  C    0.351346  -0.201122  -0.009828  -0.201122  -0.009828
     7  H    0.580469  -0.014134  -0.000030  -0.014134  -0.000030
     8  H   -0.014134   0.667952   0.000153   0.015785   0.000509
     9  H   -0.000030   0.000153   0.652375   0.000509  -0.002815
    10  H   -0.014134   0.015785   0.000509   0.667952   0.000153
    11  H   -0.000030   0.000509  -0.002815   0.000153   0.652375
 Mulliken charges:
               1
     1  C   -0.040253
     2  C   -0.639062
     3  C    0.100193
     4  C   -0.639062
     5  C   -0.040253
     6  C   -0.283231
     7  H    0.126279
     8  H    0.119669
     9  H    0.088025
    10  H    0.119669
    11  H    0.088025
 Sum of Mulliken charges =  -1.00000
 Mulliken charges with hydrogens summed into heavy atoms:
               1
     1  C    0.079416
     2  C   -0.551036
     3  C    0.100193
     4  C   -0.551036
     5  C    0.079416
     6  C   -0.156952
 Electronic spatial extent (au):  <R**2>=            468.7318
 Charge=             -1.0000 electrons
 Dipole moment (field-independent basis, Debye):
    X=              0.0000    Y=              0.0000    Z=             -5.5847  Tot=              5.5847
 Quadrupole moment (field-independent basis, Debye-Ang):
   XX=            -44.5541   YY=            -41.9375   ZZ=            -56.9954
   XY=             -0.0000   XZ=              0.0000   YZ=              0.0000
 Traceless Quadrupole moment (field-independent basis, Debye-Ang):
   XX=              3.2749   YY=              5.8915   ZZ=             -9.1664
   XY=             -0.0000   XZ=              0.0000   YZ=              0.0000
 Octapole moment (field-independent basis, Debye-Ang**2):
  XXX=              0.0000  YYY=              0.0000  ZZZ=            -53.0105  XYY=              0.0000
  XXY=              0.0000  XXZ=             -4.1766  XZZ=              0.0000  YZZ=              0.0000
  YYZ=             -3.6365  XYZ=              0.0000
 Hexadecapole moment (field-independent basis, Debye-Ang**3):
 XXXX=            -66.1399 YYYY=           -340.7579 ZZZZ=           -483.4227 XXXY=             -0.0000
 XXXZ=              0.0000 YYYX=             -0.0000 YYYZ=              0.0000 ZZZX=              0.0000
 ZZZY=              0.0000 XXYY=            -74.5368 XXZZ=            -83.8655 YYZZ=           -118.4911
 XXYZ=             -0.0000 YYXZ=              0.0000 ZZXY=             -0.0000
 N-N= 1.931808340162D+02 E-N=-9.316335952659D+02  KE= 2.305864938655D+02
 Symmetry A1   KE= 1.465066869260D+02
 Symmetry A2   KE= 2.122295250739D+00
 Symmetry B1   KE= 3.882008094198D+00
 Symmetry B2   KE= 7.807550359453D+01
 1\1\GINC-SH03-01N13\FOpt\RM062X\6-311++G(d,p)\C6H5(1-)\JLAPIER\03-Apr-
 2026\0\\# opt freq 6-311++g(d,p) m062x\\benzene anion radical\\-1,1\C,
 -1.2165898168,1.1863797082,0.\C,0.0274944001,1.8285318455,0.\C,1.28405
 42142,1.1738393437,0.\C,1.1375295255,-0.2354496096,0.\C,-0.0840851394,
 -0.9193812704,0.\C,-1.2826669061,-0.206575482,0.\H,-2.2398068264,-0.72
 13373412,0.\H,-0.1068188071,-2.0094780495,0.\H,2.0365750406,-0.8590386
 968,0.\H,-2.1385992382,1.7683817993,0.\H,0.002871735,2.9223965137,0.\\
 Version=ES64L-G16RevB.01\State=1-A1\HF=-231.5499109\RMSD=2.185e-09\RMS
 F=8.338e-05\Dipole=-1.9350837,-1.0407123,0.\Quadrupole=-4.3033373,1.86
 85267,2.4348106,-4.6700951,0.,0.\PG=C02V [C2(H1C1C1),SGV(C4H4)]\\@


 FAULTILY FAULTLESS, ICILY REGULAR, SPLENDIDLY NULL...
           MAUDE BY TENNYSON
 Job cpu time:       0 days  0 hours  3 minutes 45.1 seconds.
 Elapsed time:       0 days  0 hours  0 minutes 59.6 seconds.
 File lengths (MBytes):  RWF=     25 Int=      0 D2E=      0 Chk=      3 Scr=      1
 Normal termination of Gaussian 16 at Fri Apr  3 14:13:29 2026.
 Link1:  Proceeding to internal job step number  2.
 ----------------------------------------------------------------------
 #N Geom=AllCheck Guess=TCheck SCRF=Check GenChk RM062X/6-311++G(d,p) F
 req
 ----------------------------------------------------------------------
 1/10=4,29=7,30=1,38=1,40=1/1,3;
 2/12=2,40=1/2;
 3/5=4,6=6,7=1111,11=2,14=-4,25=1,30=1,70=2,71=2,74=-55,116=1,140=1/1,2,3;
 4/5=101/1;
 5/5=2,38=6,98=1/2;
 8/6=4,10=90,11=11/1;
 11/6=1,8=1,9=11,15=111,16=1/1,2,10;
 10/6=1/2;
 6/7=2,8=2,9=2,10=2,28=1/1;
 7/8=1,10=1,25=1/1,2,3,16;
 1/10=4,30=1/3;
 99//99;
 Structure from the checkpoint file:  "frequency_chks/chlorobenzene_anion_product_Freq.chk"
 ---------------------
 benzene anion radical
 ---------------------
 Charge = -1 Multiplicity = 1
 Redundant internal coordinates found in file.  (old form).
 C,0,-1.2165898168,1.1863797082,0.
 C,0,0.0274944001,1.8285318455,0.
 C,0,1.2840542142,1.1738393437,0.
 C,0,1.1375295255,-0.2354496096,0.
 C,0,-0.0840851394,-0.9193812704,0.
 C,0,-1.2826669061,-0.206575482,0.
 H,0,-2.2398068264,-0.7213373412,0.
 H,0,-0.1068188071,-2.0094780495,0.
 H,0,2.0365750406,-0.8590386968,0.
 H,0,-2.1385992382,1.7683817993,0.
 H,0,0.002871735,2.9223965137,0.
 Recover connectivity data from disk.

 GradGradGradGradGradGradGradGradGradGradGradGradGradGradGradGradGradGrad
 Berny optimization.
 Initialization pass.
                           ----------------------------
                           !    Initial Parameters    !
                           ! (Angstroms and Degrees)  !
 --------------------------                            --------------------------
 ! Name  Definition              Value          Derivative Info.                !
 --------------------------------------------------------------------------------
 ! R1    R(1,2)                  1.4            calculate D2E/DX2 analytically  !
 ! R2    R(1,6)                  1.3945         calculate D2E/DX2 analytically  !
 ! R3    R(1,10)                 1.0903         calculate D2E/DX2 analytically  !
 ! R4    R(2,3)                  1.4169         calculate D2E/DX2 analytically  !
 ! R5    R(2,11)                 1.0941         calculate D2E/DX2 analytically  !
 ! R6    R(3,4)                  1.4169         calculate D2E/DX2 analytically  !
 ! R7    R(4,5)                  1.4            calculate D2E/DX2 analytically  !
 ! R8    R(4,9)                  1.0941         calculate D2E/DX2 analytically  !
 ! R9    R(5,6)                  1.3945         calculate D2E/DX2 analytically  !
 ! R10   R(5,8)                  1.0903         calculate D2E/DX2 analytically  !
 ! R11   R(6,7)                  1.0868         calculate D2E/DX2 analytically  !
 ! A1    A(2,1,6)              120.0171         calculate D2E/DX2 analytically  !
 ! A2    A(2,1,10)             120.4374         calculate D2E/DX2 analytically  !
 ! A3    A(6,1,10)             119.5456         calculate D2E/DX2 analytically  !
 ! A4    A(1,2,3)              125.1784         calculate D2E/DX2 analytically  !
 ! A5    A(1,2,11)             116.0117         calculate D2E/DX2 analytically  !
 ! A6    A(3,2,11)             118.8099         calculate D2E/DX2 analytically  !
 ! A7    A(2,3,4)              111.5847         calculate D2E/DX2 analytically  !
 ! A8    A(3,4,5)              125.1784         calculate D2E/DX2 analytically  !
 ! A9    A(3,4,9)              118.8099         calculate D2E/DX2 analytically  !
 ! A10   A(5,4,9)              116.0117         calculate D2E/DX2 analytically  !
 ! A11   A(4,5,6)              120.0171         calculate D2E/DX2 analytically  !
 ! A12   A(4,5,8)              120.4374         calculate D2E/DX2 analytically  !
 ! A13   A(6,5,8)              119.5456         calculate D2E/DX2 analytically  !
 ! A14   A(1,6,5)              118.0244         calculate D2E/DX2 analytically  !
 ! A15   A(1,6,7)              120.9878         calculate D2E/DX2 analytically  !
 ! A16   A(5,6,7)              120.9878         calculate D2E/DX2 analytically  !
 ! D1    D(6,1,2,3)              0.0            calculate D2E/DX2 analytically  !
 ! D2    D(6,1,2,11)           180.0            calculate D2E/DX2 analytically  !
 ! D3    D(10,1,2,3)           180.0            calculate D2E/DX2 analytically  !
 ! D4    D(10,1,2,11)            0.0            calculate D2E/DX2 analytically  !
 ! D5    D(2,1,6,5)              0.0            calculate D2E/DX2 analytically  !
 ! D6    D(2,1,6,7)            180.0            calculate D2E/DX2 analytically  !
 ! D7    D(10,1,6,5)           180.0            calculate D2E/DX2 analytically  !
 ! D8    D(10,1,6,7)             0.0            calculate D2E/DX2 analytically  !
 ! D9    D(1,2,3,4)              0.0            calculate D2E/DX2 analytically  !
 ! D10   D(11,2,3,4)           180.0            calculate D2E/DX2 analytically  !
 ! D11   D(2,3,4,5)              0.0            calculate D2E/DX2 analytically  !
 ! D12   D(2,3,4,9)            180.0            calculate D2E/DX2 analytically  !
 ! D13   D(3,4,5,6)              0.0            calculate D2E/DX2 analytically  !
 ! D14   D(3,4,5,8)            180.0            calculate D2E/DX2 analytically  !
 ! D15   D(9,4,5,6)            180.0            calculate D2E/DX2 analytically  !
 ! D16   D(9,4,5,8)              0.0            calculate D2E/DX2 analytically  !
 ! D17   D(4,5,6,1)              0.0            calculate D2E/DX2 analytically  !
 ! D18   D(4,5,6,7)            180.0            calculate D2E/DX2 analytically  !
 ! D19   D(8,5,6,1)            180.0            calculate D2E/DX2 analytically  !
 ! D20   D(8,5,6,7)              0.0            calculate D2E/DX2 analytically  !
 --------------------------------------------------------------------------------
 Trust Radius=3.00D-01 FncErr=1.00D-07 GrdErr=1.00D-07 EigMax=2.50D+02 EigMin=1.00D-04
 Number of steps in this run=      2 maximum allowed number of steps=      2.
 GradGradGradGradGradGradGradGradGradGradGradGradGradGradGradGradGradGrad

                          Input orientation:                          
 ---------------------------------------------------------------------
 Center     Atomic      Atomic             Coordinates (Angstroms)
 Number     Number       Type             X           Y           Z
 ---------------------------------------------------------------------
      1          6           0       -1.216590    1.186380   -0.000000
      2          6           0        0.027494    1.828532   -0.000000
      3          6           0        1.284054    1.173839    0.000000
      4          6           0        1.137530   -0.235450    0.000000
      5          6           0       -0.084085   -0.919381    0.000000
      6          6           0       -1.282667   -0.206575    0.000000
      7          1           0       -2.239807   -0.721337    0.000000
      8          1           0       -0.106819   -2.009478    0.000000
      9          1           0        2.036575   -0.859039    0.000000
     10          1           0       -2.138599    1.768382   -0.000000
     11          1           0        0.002872    2.922397   -0.000000
 ---------------------------------------------------------------------
                    Distance matrix (angstroms):
                    1          2          3          4          5
     1  C    0.000000
     2  C    1.400037   0.000000
     3  C    2.500675   1.416886   0.000000
     4  C    2.750178   2.343544   1.416886   0.000000
     5  C    2.390982   2.750178   2.500675   1.400037   0.000000
     6  C    1.394522   2.420369   2.914379   2.420369   1.394522
     7  H    2.164800   3.412109   4.001161   3.412109   2.164800
     8  H    3.383061   3.840359   3.473908   2.166929   1.090334
     9  H    3.842762   3.355509   2.167690   1.094142   2.121519
    10  H    1.090334   2.166929   3.473908   3.840359   3.383061
    11  H    2.121519   1.094142   2.167690   3.355509   3.842762
                    6          7          8          9         10
     6  C    0.000000
     7  H    1.086783   0.000000
     8  H    2.152458   2.491775   0.000000
     9  H    3.382761   4.278598   2.432622   0.000000
    10  H    2.152458   2.491775   4.289564   4.933094   0.000000
    11  H    3.382761   4.278598   4.933094   4.293623   2.432622
                   11
    11  H    0.000000
 Stoichiometry    C6H5(1-)
 Framework group  C2V[C2(HCC),SGV(C4H4)]
 Deg. of freedom    10
 Full point group                 C2V     NOp   4
 Largest Abelian subgroup         C2V     NOp   4
 Largest concise Abelian subgroup C2      NOp   2
                         Standard orientation:                         
 ---------------------------------------------------------------------
 Center     Atomic      Atomic             Coordinates (Angstroms)
 Number     Number       Type             X           Y           Z
 ---------------------------------------------------------------------
      1          6           0       -0.000000    1.195491   -0.648382
      2          6           0        0.000000    1.171772    0.751455
      3          6           0       -0.000000    0.000000    1.548020
      4          6           0       -0.000000   -1.171772    0.751455
      5          6           0       -0.000000   -1.195491   -0.648382
      6          6           0        0.000000   -0.000000   -1.366359
      7          1           0        0.000000   -0.000000   -2.453142
      8          1           0       -0.000000   -2.144782   -1.184735
      9          1           0        0.000000   -2.146812    1.247886
     10          1           0        0.000000    2.144782   -1.184735
     11          1           0        0.000000    2.146812    1.247886
 ---------------------------------------------------------------------
 Rotational constants (GHZ):           5.8891096           5.8246610           2.9283540
 Standard basis: 6-311++G(d,p) (5D, 7F)
 There are    75 symmetry adapted cartesian basis functions of A1  symmetry.
 There are    16 symmetry adapted cartesian basis functions of A2  symmetry.
 There are    25 symmetry adapted cartesian basis functions of B1  symmetry.
 There are    57 symmetry adapted cartesian basis functions of B2  symmetry.
 There are    71 symmetry adapted basis functions of A1  symmetry.
 There are    16 symmetry adapted basis functions of A2  symmetry.
 There are    25 symmetry adapted basis functions of B1  symmetry.
 There are    55 symmetry adapted basis functions of B2  symmetry.
   167 basis functions,   261 primitive gaussians,   173 cartesian basis functions
    21 alpha electrons       21 beta electrons
       nuclear repulsion energy       193.1808340162 Hartrees.
 NAtoms=   11 NActive=   11 NUniq=    7 SFac= 2.47D+00 NAtFMM=   60 NAOKFM=F Big=F
 Integral buffers will be    131072 words long.
 Raffenetti 2 integral format.
 Two-electron integral symmetry is turned on.
 One-electron integrals computed using PRISM.
 NBasis=   167 RedAO= T EigKep=  2.41D-06  NBF=    71    16    25    55
 NBsUse=   167 1.00D-06 EigRej= -1.00D+00 NBFU=    71    16    25    55
 Initial guess from the checkpoint file:  "frequency_chks/chlorobenzene_anion_product_Freq.chk"
 B after Tr=    -0.000000    0.000000    0.000000
         Rot=    1.000000    0.000000   -0.000000    0.000000 Ang=   0.00 deg.
 Initial guess orbital symmetries:
       Occupied  (A1) (B2) (A1) (B2) (A1) (A1) (A1) (B2) (A1) (B2)
                 (A1) (A1) (A1) (B2) (B2) (A1) (B1) (B2) (A2) (B1)
                 (A1)
       Virtual   (A1) (B2) (A1) (B2) (A1) (A2) (B1) (B1) (A1) (B2)
                 (A2) (A1) (B1) (B2) (A1) (A1) (B2) (A1) (B2) (B1)
                 (A2) (A1) (B1) (B2) (A1) (B2) (A1) (B2) (A1) (B2)
                 (A1) (A1) (B1) (B2) (A1) (A1) (B2) (A1) (B2) (B2)
                 (A1) (B2) (A1) (A1) (B1) (B2) (A1) (A2) (B2) (B1)
                 (B2) (A1) (A2) (B1) (A1) (B1) (A1) (B2) (A1) (B2)
                 (A1) (A1) (B2) (A1) (A1) (B2) (B2) (A1) (B2) (A1)
                 (B1) (B2) (A2) (A2) (B1) (A1) (A2) (B1) (A1) (B2)
                 (A1) (A1) (B2) (B1) (A2) (A1) (B2) (A1) (B1) (B1)
                 (B2) (A2) (A1) (B2) (B2) (A2) (B1) (A1) (B2) (A1)
                 (B1) (A1) (B2) (A2) (B1) (B2) (A2) (A1) (A1) (B2)
                 (A1) (B2) (A1) (A1) (A1) (B2) (B1) (A1) (B2) (A1)
                 (B2) (A2) (B1) (A2) (B1) (B2) (B1) (A1) (B2) (B2)
                 (A1) (B2) (A1) (A1) (A1) (B2) (A1) (A1) (B2) (B2)
                 (A1) (A1) (B2) (A1) (B2) (A1)
 Keep R1 ints in memory in symmetry-blocked form, NReq=124767515.
 Requested convergence on RMS density matrix=1.00D-08 within 128 cycles.
 Requested convergence on MAX density matrix=1.00D-06.
 Requested convergence on             energy=1.00D-06.
 No special actions if energy rises.
 SCF Done:  E(RM062X) =  -231.549910854     A.U. after    1 cycles
            NFock=  1  Conv=0.12D-08     -V/T= 2.0042
 DoSCS=F DFT=T ScalE2(SS,OS)=  1.000000  1.000000
 Range of M.O.s used for correlation:     1   167
 NBasis=   167 NAE=    21 NBE=    21 NFC=     0 NFV=     0
 NROrb=    167 NOA=    21 NOB=    21 NVA=   146 NVB=   146

 **** Warning!!: The largest alpha MO coefficient is  0.13063394D+03

 Symmetrizing basis deriv contribution to polar:
 IMax=3 JMax=2 DiffMx= 0.00D+00
 G2DrvN: will do    12 centers at a time, making    1 passes.
 Calling FoFCou, ICntrl=  3107 FMM=F I1Cent=   0 AccDes= 0.00D+00.
 End of G2Drv F.D. properties file   721 does not exist.
 End of G2Drv F.D. properties file   722 does not exist.
 End of G2Drv F.D. properties file   788 does not exist.
          IDoAtm=11111111111
          Differentiating once with respect to electric field.
                with respect to dipole field.
          Differentiating once with respect to nuclear coordinates.
 Keep R1 ints in memory in symmetry-blocked form, NReq=124772568.
          There are    24 degrees of freedom in the 1st order CPHF.  IDoFFX=4 NUNeed=    24.
     24 vectors produced by pass  0 Test12= 1.28D-14 4.17D-09 XBig12= 8.62D+01 4.79D+00.
 AX will form    24 AO Fock derivatives at one time.
     24 vectors produced by pass  1 Test12= 1.28D-14 4.17D-09 XBig12= 2.51D+01 2.57D+00.
     24 vectors produced by pass  2 Test12= 1.28D-14 4.17D-09 XBig12= 5.74D-01 2.23D-01.
     24 vectors produced by pass  3 Test12= 1.28D-14 4.17D-09 XBig12= 1.31D-02 2.35D-02.
     24 vectors produced by pass  4 Test12= 1.28D-14 4.17D-09 XBig12= 2.08D-04 2.73D-03.
     24 vectors produced by pass  5 Test12= 1.28D-14 4.17D-09 XBig12= 1.58D-06 2.12D-04.
     24 vectors produced by pass  6 Test12= 1.28D-14 4.17D-09 XBig12= 8.04D-09 1.68D-05.
     13 vectors produced by pass  7 Test12= 1.28D-14 4.17D-09 XBig12= 3.69D-11 1.32D-06.
      3 vectors produced by pass  8 Test12= 1.28D-14 4.17D-09 XBig12= 2.27D-13 7.65D-08.
      1 vectors produced by pass  9 Test12= 1.28D-14 4.17D-09 XBig12= 1.16D-15 4.83D-09.
 InvSVY:  IOpt=1 It=  1 EMax= 1.78D-15
 Solved reduced A of dimension   185 with    24 vectors.
 Isotropic polarizability for W=    0.000000       90.19 Bohr**3.
 End of Minotr F.D. properties file   721 does not exist.
 End of Minotr F.D. properties file   722 does not exist.
 End of Minotr F.D. properties file   788 does not exist.

 **********************************************************************

            Population analysis using the SCF Density.

 **********************************************************************

 Orbital symmetries:
       Occupied  (A1) (B2) (A1) (B2) (A1) (A1) (A1) (B2) (A1) (B2)
                 (A1) (A1) (A1) (B2) (B2) (A1) (B1) (B2) (A2) (B1)
                 (A1)
       Virtual   (A1) (B2) (A1) (B2) (A1) (A2) (B1) (B1) (A1) (B2)
                 (A2) (A1) (B1) (B2) (A1) (A1) (B2) (A1) (B2) (B1)
                 (A2) (A1) (B1) (B2) (A1) (B2) (A1) (B2) (A1) (B2)
                 (A1) (A1) (B1) (B2) (A1) (A1) (B2) (A1) (B2) (B2)
                 (A1) (B2) (A1) (A1) (B1) (B2) (A1) (A2) (B2) (B1)
                 (B2) (A1) (A2) (B1) (A1) (B1) (A1) (B2) (A1) (B2)
                 (A1) (A1) (B2) (A1) (A1) (B2) (B2) (A1) (B2) (A1)
                 (B1) (B2) (A2) (A2) (B1) (A1) (A2) (B1) (A1) (B2)
                 (A1) (A1) (B2) (B1) (A2) (A1) (B2) (A1) (B1) (B1)
                 (B2) (A2) (A1) (B2) (B2) (A2) (B1) (A1) (B2) (A1)
                 (B1) (A1) (B2) (A2) (B1) (B2) (A2) (A1) (A1) (B2)
                 (A1) (B2) (A1) (A1) (A1) (B2) (B1) (A1) (B2) (A1)
                 (B2) (A2) (B1) (A2) (B1) (B2) (B1) (A1) (B2) (B2)
                 (A1) (B2) (A1) (A1) (A1) (B2) (A1) (A1) (B2) (B2)
                 (A1) (A1) (B2) (A1) (B2) (A1)
 The electronic state is 1-A1.
 Alpha  occ. eigenvalues --  -10.36456 -10.36276 -10.36259 -10.34232 -10.34232
 Alpha  occ. eigenvalues --  -10.29472  -0.76021  -0.64731  -0.63047  -0.48599
 Alpha  occ. eigenvalues --   -0.47809  -0.40173  -0.33174  -0.30769  -0.29477
 Alpha  occ. eigenvalues --   -0.25955  -0.24517  -0.19154  -0.11928  -0.10030
 Alpha  occ. eigenvalues --   -0.02956
 Alpha virt. eigenvalues --    0.10408   0.11268   0.12325   0.13530   0.14327
 Alpha virt. eigenvalues --    0.19592   0.20219   0.20981   0.21800   0.23104
 Alpha virt. eigenvalues --    0.23190   0.24273   0.24599   0.24822   0.24974
 Alpha virt. eigenvalues --    0.25512   0.27646   0.27693   0.28128   0.28355
 Alpha virt. eigenvalues --    0.28895   0.29336   0.30112   0.30844   0.31964
 Alpha virt. eigenvalues --    0.32420   0.32813   0.36705   0.36806   0.37248
 Alpha virt. eigenvalues --    0.40040   0.40933   0.41552   0.45214   0.46379
 Alpha virt. eigenvalues --    0.47085   0.48070   0.52499   0.54594   0.56745
 Alpha virt. eigenvalues --    0.57487   0.66704   0.67909   0.73301   0.73856
 Alpha virt. eigenvalues --    0.75092   0.76355   0.77891   0.78890   0.79472
 Alpha virt. eigenvalues --    0.79992   0.80488   0.83417   0.84331   0.85746
 Alpha virt. eigenvalues --    0.90625   0.92008   0.93744   0.94914   0.96052
 Alpha virt. eigenvalues --    0.99295   1.01220   1.03948   1.04663   1.06182
 Alpha virt. eigenvalues --    1.08114   1.10552   1.11890   1.12559   1.18604
 Alpha virt. eigenvalues --    1.18888   1.23256   1.26206   1.32539   1.34542
 Alpha virt. eigenvalues --    1.38555   1.40090   1.43675   1.55825   1.68978
 Alpha virt. eigenvalues --    1.71960   1.74712   1.76540   1.78447   1.79303
 Alpha virt. eigenvalues --    1.85797   1.87207   1.87831   1.90330   1.93313
 Alpha virt. eigenvalues --    1.96830   1.99073   2.03189   2.04854   2.10581
 Alpha virt. eigenvalues --    2.14245   2.14879   2.15132   2.16340   2.20572
 Alpha virt. eigenvalues --    2.24232   2.24863   2.25410   2.28140   2.47993
 Alpha virt. eigenvalues --    2.50932   2.55522   2.58962   2.62932   2.69227
 Alpha virt. eigenvalues --    2.71723   2.72718   2.81202   2.85818   2.89073
 Alpha virt. eigenvalues --    2.90054   2.90754   2.92298   2.94019   2.99840
 Alpha virt. eigenvalues --    3.01069   3.03411   3.04982   3.13749   3.15876
 Alpha virt. eigenvalues --    3.16910   3.32163   3.34927   3.36051   3.58698
 Alpha virt. eigenvalues --    3.59806   3.71040   3.71634   3.76532   4.01057
 Alpha virt. eigenvalues --    4.20161   4.25124   4.35177   4.36106   4.97920
 Alpha virt. eigenvalues --   23.83079  24.20241  24.21233  24.32009  24.34249
 Alpha virt. eigenvalues --   24.41549
          Condensed to atoms (all electrons):
               1          2          3          4          5          6
     1  C    5.946928  -0.173224   0.450684  -0.567836   0.582730  -0.514627
     2  C   -0.173224   5.888297  -0.107557   0.536582  -0.567836   0.896847
     3  C    0.450684  -0.107557   5.983523  -0.107557   0.450684  -1.142696
     4  C   -0.567836   0.536582  -0.107557   5.888297  -0.173224   0.896847
     5  C    0.582730  -0.567836   0.450684  -0.173224   5.946928  -0.514627
     6  C   -0.514627   0.896847  -1.142696   0.896847  -0.514627   6.732042
     7  H   -0.003560   0.003413  -0.029473   0.003413  -0.003560   0.351346
     8  H    0.076684  -0.087878   0.135280  -0.078880   0.365982  -0.201122
     9  H    0.013098  -0.018148   0.065820   0.347446  -0.136605  -0.009828
    10  H    0.365982  -0.078880   0.135280  -0.087878   0.076684  -0.201122
    11  H   -0.136605   0.347446   0.065820  -0.018148   0.013098  -0.009828
               7          8          9         10         11
     1  C   -0.003560   0.076684   0.013098   0.365982  -0.136605
     2  C    0.003413  -0.087878  -0.018148  -0.078880   0.347446
     3  C   -0.029473   0.135280   0.065820   0.135280   0.065820
     4  C    0.003413  -0.078880   0.347446  -0.087878  -0.018148
     5  C   -0.003560   0.365982  -0.136605   0.076684   0.013098
     6  C    0.351346  -0.201122  -0.009828  -0.201122  -0.009828
     7  H    0.580469  -0.014134  -0.000030  -0.014134  -0.000030
     8  H   -0.014134   0.667952   0.000153   0.015785   0.000509
     9  H   -0.000030   0.000153   0.652375   0.000509  -0.002815
    10  H   -0.014134   0.015785   0.000509   0.667952   0.000153
    11  H   -0.000030   0.000509  -0.002815   0.000153   0.652375
 Mulliken charges:
               1
     1  C   -0.040253
     2  C   -0.639062
     3  C    0.100193
     4  C   -0.639062
     5  C   -0.040253
     6  C   -0.283231
     7  H    0.126279
     8  H    0.119669
     9  H    0.088025
    10  H    0.119669
    11  H    0.088025
 Sum of Mulliken charges =  -1.00000
 Mulliken charges with hydrogens summed into heavy atoms:
               1
     1  C    0.079416
     2  C   -0.551036
     3  C    0.100193
     4  C   -0.551036
     5  C    0.079416
     6  C   -0.156952
 APT charges:
               1
     1  C    0.020460
     2  C   -0.037783
     3  C   -0.493614
     4  C   -0.037783
     5  C    0.020460
     6  C   -0.187966
     7  H   -0.014988
     8  H   -0.061412
     9  H   -0.072981
    10  H   -0.061412
    11  H   -0.072981
 Sum of APT charges =  -1.00000
 APT charges with hydrogens summed into heavy atoms:
               1
     1  C   -0.040952
     2  C   -0.110763
     3  C   -0.493614
     4  C   -0.110763
     5  C   -0.040952
     6  C   -0.202955
 Electronic spatial extent (au):  <R**2>=            468.7318
 Charge=             -1.0000 electrons
 Dipole moment (field-independent basis, Debye):
    X=              0.0000    Y=              0.0000    Z=             -5.5847  Tot=              5.5847
 Quadrupole moment (field-independent basis, Debye-Ang):
   XX=            -44.5541   YY=            -41.9375   ZZ=            -56.9954
   XY=             -0.0000   XZ=              0.0000   YZ=             -0.0000
 Traceless Quadrupole moment (field-independent basis, Debye-Ang):
   XX=              3.2749   YY=              5.8915   ZZ=             -9.1664
   XY=             -0.0000   XZ=              0.0000   YZ=             -0.0000
 Octapole moment (field-independent basis, Debye-Ang**2):
  XXX=              0.0000  YYY=              0.0000  ZZZ=            -53.0105  XYY=              0.0000
  XXY=             -0.0000  XXZ=             -4.1766  XZZ=              0.0000  YZZ=              0.0000
  YYZ=             -3.6365  XYZ=              0.0000
 Hexadecapole moment (field-independent basis, Debye-Ang**3):
 XXXX=            -66.1399 YYYY=           -340.7579 ZZZZ=           -483.4227 XXXY=             -0.0000
 XXXZ=              0.0000 YYYX=             -0.0000 YYYZ=              0.0000 ZZZX=              0.0000
 ZZZY=             -0.0000 XXYY=            -74.5368 XXZZ=            -83.8655 YYZZ=           -118.4911
 XXYZ=             -0.0000 YYXZ=              0.0000 ZZXY=             -0.0000
 N-N= 1.931808340162D+02 E-N=-9.316335952657D+02  KE= 2.305864938653D+02
 Symmetry A1   KE= 1.465066869259D+02
 Symmetry A2   KE= 2.122295250695D+00
 Symmetry B1   KE= 3.882008094248D+00
 Symmetry B2   KE= 7.807550359451D+01
  Exact polarizability:  58.402   0.000  97.561  -0.000   0.000 114.596
 Approx polarizability:  69.813   0.000 121.296  -0.000  -0.000 126.925
 Calling FoFJK, ICntrl=    100127 FMM=F ISym2X=1 I1Cent= 0 IOpClX= 0 NMat=1 NMatS=1 NMatT=0.
 Full mass-weighted force constant matrix:
 Low frequencies ---   -2.3590    0.0005    0.0006    0.0011   15.4538   22.0279
 Low frequencies ---  356.6916  396.1359  597.1112
 Diagonal vibrational polarizability:
        6.0905243       1.5874725       0.7345295
 Harmonic frequencies (cm**-1), IR intensities (KM/Mole), Raman scattering
 activities (A**4/AMU), depolarization ratios for plane and unpolarized
 incident light, reduced masses (AMU), force constants (mDyne/A),
 and normal coordinates:
                      1                      2                      3
                     A2                     B1                     A1
 Frequencies --    356.6911               396.1359               597.1112
 Red. masses --      2.5908                 3.9446                 6.9647
 Frc consts  --      0.1942                 0.3647                 1.4631
 IR Inten    --      0.0000                14.6083                 0.8462
  Atom  AN      X      Y      Z        X      Y      Z        X      Y      Z
     1   6     0.19  -0.00   0.00    -0.14   0.00  -0.00     0.00  -0.23  -0.03
     2   6    -0.19   0.00   0.00    -0.13  -0.00  -0.00     0.00  -0.25   0.03
     3   6     0.00  -0.00  -0.00     0.34   0.00   0.00    -0.00   0.00   0.41
     4   6     0.19  -0.00   0.00    -0.13  -0.00   0.00     0.00   0.25   0.03
     5   6    -0.19   0.00   0.00    -0.14   0.00   0.00     0.00   0.23  -0.03
     6   6     0.00   0.00  -0.00     0.28   0.00  -0.00    -0.00  -0.00  -0.37
     7   1     0.00  -0.00   0.00     0.56  -0.00  -0.00    -0.00   0.00  -0.37
     8   1    -0.44   0.00  -0.00    -0.29   0.00  -0.00    -0.00   0.05   0.29
     9   1     0.48  -0.00  -0.00    -0.35  -0.00  -0.00    -0.00   0.10  -0.26
    10   1     0.44   0.00  -0.00    -0.29   0.00   0.00    -0.00  -0.05   0.29
    11   1    -0.48  -0.00  -0.00    -0.35  -0.00  -0.00    -0.00  -0.10  -0.26
                      4                      5                      6
                     B2                     B1                     B1
 Frequencies --    630.0959               677.1050               698.1834
 Red. masses --      6.3738                 1.9212                 1.8553
 Frc consts  --      1.4909                 0.5190                 0.5328
 IR Inten    --      0.0752                23.7708                39.3117
  Atom  AN      X      Y      Z        X      Y      Z        X      Y      Z
     1   6    -0.00   0.24  -0.24    -0.06   0.00   0.00    -0.16  -0.00   0.00
     2   6     0.00  -0.22  -0.23     0.12   0.00  -0.00     0.08  -0.00   0.00
     3   6    -0.00  -0.16   0.00    -0.13  -0.00  -0.00    -0.09   0.00   0.00
     4   6     0.00  -0.22   0.23     0.12  -0.00   0.00     0.08   0.00  -0.00
     5   6    -0.00   0.24   0.24    -0.06  -0.00   0.00    -0.16  -0.00  -0.00
     6   6    -0.00   0.14  -0.00     0.17   0.00   0.00     0.08  -0.00  -0.00
     7   1     0.00  -0.29  -0.00    -0.50  -0.00   0.00     0.55   0.00  -0.00
     8   1     0.00   0.33   0.07    -0.55   0.00  -0.00     0.29  -0.00   0.00
     9   1     0.00  -0.30   0.08    -0.16   0.00   0.00     0.47   0.00  -0.00
    10   1     0.00   0.33  -0.07    -0.55  -0.00   0.00     0.29  -0.00   0.00
    11   1     0.00  -0.30  -0.08    -0.16   0.00  -0.00     0.47   0.00   0.00
                      7                      8                      9
                     A2                     B1                     B1
 Frequencies --    855.3683               868.8852               946.2267
 Red. masses --      1.2602                 1.3110                 1.1357
 Frc consts  --      0.5433                 0.5831                 0.5991
 IR Inten    --      0.0000                 0.5529                 0.0009
  Atom  AN      X      Y      Z        X      Y      Z        X      Y      Z
     1   6     0.10   0.00  -0.00     0.01   0.00   0.00    -0.05   0.00  -0.00
     2   6     0.05  -0.00  -0.00     0.08  -0.00  -0.00     0.05   0.00  -0.00
     3   6     0.00   0.00   0.00    -0.04   0.00   0.00     0.01  -0.00   0.00
     4   6    -0.05   0.00   0.00     0.08  -0.00  -0.00     0.05  -0.00   0.00
     5   6    -0.10  -0.00   0.00     0.01  -0.00  -0.00    -0.05  -0.00  -0.00
     6   6     0.00   0.00   0.00    -0.11   0.00   0.00     0.02   0.00  -0.00
     7   1     0.00   0.00   0.00     0.78  -0.00   0.00    -0.29   0.00  -0.00
     8   1     0.61  -0.00   0.00    -0.19   0.00  -0.00     0.49  -0.00  -0.00
     9   1     0.33  -0.00  -0.00    -0.39   0.00   0.00    -0.46   0.00   0.00
    10   1    -0.61   0.00   0.00    -0.19   0.00   0.00     0.49   0.00  -0.00
    11   1    -0.33  -0.00  -0.00    -0.39   0.00  -0.00    -0.46  -0.00  -0.00
                     10                     11                     12
                     A2                     A1                     A1
 Frequencies --    961.4262               974.7879              1006.9884
 Red. masses --      1.4457                 6.6562                 6.4373
 Frc consts  --      0.7873                 3.7264                 3.8459
 IR Inten    --      0.0000                 0.6627                 0.0827
  Atom  AN      X      Y      Z        X      Y      Z        X      Y      Z
     1   6    -0.07  -0.00   0.00    -0.00   0.29  -0.21    -0.00   0.07  -0.02
     2   6     0.12   0.00   0.00     0.00   0.09  -0.01     0.00  -0.36  -0.19
     3   6     0.00  -0.00  -0.00    -0.00   0.00   0.48     0.00   0.00   0.01
     4   6    -0.12   0.00  -0.00    -0.00  -0.09  -0.01    -0.00   0.36  -0.19
     5   6     0.07   0.00   0.00     0.00  -0.29  -0.21     0.00  -0.07  -0.02
     6   6    -0.00  -0.00  -0.00    -0.00   0.00   0.03     0.00   0.00   0.39
     7   1     0.00  -0.00  -0.00     0.00   0.00   0.01    -0.00   0.00   0.40
     8   1    -0.31   0.00   0.00    -0.00  -0.17  -0.45    -0.00  -0.08   0.05
     9   1     0.62  -0.00  -0.00     0.00  -0.09   0.00     0.00   0.37  -0.15
    10   1     0.31  -0.00   0.00     0.00   0.17  -0.45     0.00   0.08   0.05
    11   1    -0.62   0.00  -0.00    -0.00   0.09   0.00    -0.00  -0.37  -0.15
                     13                     14                     15
                     B2                     A1                     B2
 Frequencies --   1056.4481              1066.5630              1151.9379
 Red. masses --      1.8389                 1.8053                 1.1015
 Frc consts  --      1.2092                 1.2100                 0.8612
 IR Inten    --      0.0047                10.2715                 0.0001
  Atom  AN      X      Y      Z        X      Y      Z        X      Y      Z
     1   6    -0.00  -0.07   0.07    -0.00   0.14   0.01    -0.00  -0.02  -0.04
     2   6    -0.00  -0.07  -0.11     0.00  -0.06   0.04     0.00  -0.01   0.00
     3   6    -0.00   0.12  -0.00     0.00   0.00  -0.08    -0.00  -0.01  -0.00
     4   6    -0.00  -0.07   0.11    -0.00   0.06   0.04     0.00  -0.01  -0.00
     5   6     0.00  -0.07  -0.07     0.00  -0.14   0.01     0.00  -0.02   0.04
     6   6    -0.00   0.09   0.00     0.00   0.00  -0.14    -0.00   0.07  -0.00
     7   1     0.00   0.56   0.00     0.00   0.00  -0.15     0.00   0.70  -0.00
     8   1    -0.00   0.10  -0.38    -0.00  -0.38   0.43    -0.00  -0.24   0.42
     9   1     0.00   0.07   0.38     0.00   0.19   0.30    -0.00  -0.06  -0.09
    10   1     0.00   0.10   0.38     0.00   0.38   0.43    -0.00  -0.24  -0.42
    11   1     0.00   0.07  -0.38    -0.00  -0.19   0.30    -0.00  -0.06   0.09
                     16                     17                     18
                     A1                     B2                     B2
 Frequencies --   1197.5064              1256.3450              1337.4907
 Red. masses --      1.1896                 5.5361                 1.3441
 Frc consts  --      1.0051                 5.1484                 1.4167
 IR Inten    --      0.2623                30.4391                 4.0791
  Atom  AN      X      Y      Z        X      Y      Z        X      Y      Z
     1   6     0.00  -0.02  -0.03    -0.00  -0.09  -0.17    -0.00  -0.00  -0.03
     2   6     0.00  -0.05   0.06     0.00  -0.18   0.20    -0.00  -0.03   0.09
     3   6     0.00   0.00  -0.03    -0.00   0.41   0.00     0.00  -0.06   0.00
     4   6    -0.00   0.05   0.06     0.00  -0.18  -0.20    -0.00  -0.03  -0.09
     5   6    -0.00   0.02  -0.03    -0.00  -0.09   0.17    -0.00  -0.00   0.03
     6   6     0.00   0.00  -0.02     0.00   0.17   0.00     0.00   0.10   0.00
     7   1    -0.00  -0.00  -0.03    -0.00  -0.38   0.00    -0.00  -0.23   0.00
     8   1     0.00   0.22  -0.40     0.00   0.09  -0.15     0.00  -0.08   0.17
     9   1     0.00   0.26   0.46     0.00  -0.25  -0.36     0.00   0.32   0.56
    10   1    -0.00  -0.22  -0.40     0.00   0.09   0.15     0.00  -0.08  -0.17
    11   1    -0.00  -0.26   0.46    -0.00  -0.25   0.36     0.00   0.32  -0.56
                     19                     20                     21
                     B2                     A1                     A1
 Frequencies --   1430.4805              1463.4634              1592.3735
 Red. masses --      1.9991                 1.9439                 4.9031
 Frc consts  --      2.4102                 2.4530                 7.3251
 IR Inten    --      0.7938                 0.1905                 8.7391
  Atom  AN      X      Y      Z        X      Y      Z        X      Y      Z
     1   6    -0.00  -0.03  -0.16     0.00  -0.09  -0.02     0.00   0.13   0.31
     2   6    -0.00   0.06   0.07     0.00   0.10  -0.14     0.00   0.00  -0.21
     3   6     0.00  -0.11   0.00    -0.00   0.00   0.10    -0.00  -0.00   0.08
     4   6     0.00   0.06  -0.07     0.00  -0.10  -0.14    -0.00  -0.00  -0.21
     5   6    -0.00  -0.03   0.16    -0.00   0.09  -0.02    -0.00  -0.13   0.31
     6   6     0.00  -0.07   0.00    -0.00   0.00   0.05     0.00   0.00  -0.19
     7   1     0.00   0.59  -0.00     0.00  -0.00   0.07    -0.00  -0.00  -0.21
     8   1     0.00   0.30  -0.41    -0.00  -0.09   0.32     0.00   0.29  -0.44
     9   1    -0.00   0.13   0.03     0.00   0.26   0.53     0.00   0.14   0.02
    10   1    -0.00   0.30   0.41     0.00   0.09   0.32    -0.00  -0.29  -0.44
    11   1     0.00   0.13  -0.03    -0.00  -0.26   0.53    -0.00  -0.14   0.02
                     22                     23                     24
                     B2                     A1                     B2
 Frequencies --   1598.9833              3058.5961              3059.1890
 Red. masses --      4.9839                 1.0835                 1.0840
 Frc consts  --      7.5077                 5.9721                 5.9773
 IR Inten    --      3.3388                 7.0566               146.6796
  Atom  AN      X      Y      Z        X      Y      Z        X      Y      Z
     1   6    -0.00  -0.22  -0.06     0.00  -0.01   0.00     0.00   0.01  -0.00
     2   6    -0.00   0.15  -0.11    -0.00   0.05   0.03     0.00  -0.05  -0.03
     3   6     0.00  -0.18  -0.00    -0.00   0.00  -0.00     0.00  -0.00   0.00
     4   6    -0.00   0.15   0.11    -0.00  -0.05   0.03    -0.00  -0.05   0.03
     5   6     0.00  -0.22   0.06     0.00   0.01   0.00    -0.00   0.01   0.00
     6   6     0.00   0.40   0.00     0.00  -0.00  -0.00    -0.00   0.00  -0.00
     7   1    -0.00  -0.58   0.00     0.00   0.00   0.03     0.00  -0.00   0.00
     8   1     0.00  -0.10  -0.19    -0.00  -0.14  -0.07    -0.00  -0.11  -0.06
     9   1    -0.00  -0.09  -0.31     0.00   0.61  -0.32     0.00   0.61  -0.33
    10   1     0.00  -0.10   0.19    -0.00   0.14  -0.07     0.00  -0.11   0.06
    11   1     0.00  -0.09   0.31     0.00  -0.61  -0.32    -0.00   0.61   0.33
                     25                     26                     27
                     A1                     B2                     A1
 Frequencies --   3116.5930              3122.9731              3169.1722
 Red. masses --      1.0866                 1.0910                 1.0951
 Frc consts  --      6.2186                 6.2689                 6.4805
 IR Inten    --     24.7113               193.7290                81.3147
  Atom  AN      X      Y      Z        X      Y      Z        X      Y      Z
     1   6    -0.00   0.05  -0.03     0.00  -0.05   0.03    -0.00   0.02  -0.01
     2   6    -0.00   0.01   0.01     0.00  -0.01  -0.01     0.00   0.00   0.00
     3   6     0.00   0.00  -0.00    -0.00   0.00   0.00     0.00   0.00  -0.00
     4   6     0.00  -0.01   0.01    -0.00  -0.01   0.01    -0.00  -0.00   0.00
     5   6    -0.00  -0.05  -0.03    -0.00  -0.05  -0.03    -0.00  -0.02  -0.01
     6   6    -0.00   0.00   0.03     0.00   0.00   0.00     0.00  -0.00  -0.08
     7   1    -0.00  -0.00  -0.37    -0.00  -0.01   0.00    -0.00   0.00   0.93
     8   1     0.00   0.56   0.31     0.00   0.60   0.34     0.00   0.22   0.12
     9   1     0.00   0.13  -0.07     0.00   0.11  -0.06     0.00   0.03  -0.02
    10   1     0.00  -0.56   0.31    -0.00   0.60  -0.34     0.00  -0.22   0.12
    11   1     0.00  -0.13  -0.07    -0.00   0.11   0.06     0.00  -0.03  -0.02

 -------------------
 - Thermochemistry -
 -------------------
 Temperature   298.150 Kelvin.  Pressure   1.00000 Atm.
 Atom     1 has atomic number  6 and mass  12.00000
 Atom     2 has atomic number  6 and mass  12.00000
 Atom     3 has atomic number  6 and mass  12.00000
 Atom     4 has atomic number  6 and mass  12.00000
 Atom     5 has atomic number  6 and mass  12.00000
 Atom     6 has atomic number  6 and mass  12.00000
 Atom     7 has atomic number  1 and mass   1.00783
 Atom     8 has atomic number  1 and mass   1.00783
 Atom     9 has atomic number  1 and mass   1.00783
 Atom    10 has atomic number  1 and mass   1.00783
 Atom    11 has atomic number  1 and mass   1.00783
 Molecular mass:    77.03913 amu.
 Principal axes and moments of inertia in atomic units:
                           1         2         3
     Eigenvalues --   306.45400 309.84485 616.29885
           X            0.00000   0.00000   1.00000
           Y            0.00000   1.00000  -0.00000
           Z            1.00000  -0.00000  -0.00000
 This molecule is an asymmetric top.
 Rotational symmetry number  2.
 Rotational temperatures (Kelvin)      0.28263     0.27954     0.14054
 Rotational constants (GHZ):           5.88911     5.82466     2.92835
 Zero-point vibrational energy     225179.8 (Joules/Mol)
                                   53.81926 (Kcal/Mol)
 Warning -- explicit consideration of   3 degrees of freedom as
           vibrations may cause significant error
 Vibrational temperatures:    513.20   569.95   859.11   906.57   974.20
          (Kelvin)           1004.53  1230.68  1250.13  1361.41  1383.28
                             1402.50  1448.83  1519.99  1534.55  1657.38
                             1722.94  1807.60  1924.35  2058.14  2105.60
                             2291.07  2300.58  4400.64  4401.49  4484.08
                             4493.26  4559.73
 
 Zero-point correction=                           0.085766 (Hartree/Particle)
 Thermal correction to Energy=                    0.090234
 Thermal correction to Enthalpy=                  0.091178
 Thermal correction to Gibbs Free Energy=         0.058949
 Sum of electronic and zero-point Energies=           -231.464144
 Sum of electronic and thermal Energies=              -231.459677
 Sum of electronic and thermal Enthalpies=            -231.458733
 Sum of electronic and thermal Free Energies=         -231.490962
 
                     E (Thermal)             CV                S
                      KCal/Mol        Cal/Mol-Kelvin    Cal/Mol-Kelvin
 Total                   56.622             17.122             67.832
 Electronic               0.000              0.000              0.000
 Translational            0.889              2.981             38.940
 Rotational               0.889              2.981             24.196
 Vibrational             54.845             11.161              4.695
 Vibration     1          0.732              1.562              1.136
 Vibration     2          0.763              1.478              0.977
 Vibration     3          0.955              1.038              0.455
                       Q            Log10(Q)             Ln(Q)
 Total Bot       0.768282D-27        -27.114480        -62.433396
 Total V=0       0.216429D+13         12.335315         28.403111
 Vib (Bot)       0.667626D-39        -39.175467        -90.204845
 Vib (Bot)    1  0.514992D+00         -0.288200         -0.663605
 Vib (Bot)    2  0.451206D+00         -0.345626         -0.795832
 Vib (Bot)    3  0.250812D+00         -0.600651         -1.383050
 Vib (V=0)       0.188074D+01          0.274328          0.631663
 Vib (V=0)    1  0.121779D+01          0.085571          0.197034
 Vib (V=0)    2  0.117349D+01          0.069479          0.159981
 Vib (V=0)    3  0.105938D+01          0.025052          0.057685
 Electronic      0.100000D+01          0.000000          0.000000
 Translational   0.265779D+08          7.424521         17.095591
 Rotational      0.432978D+05          4.636466         10.675858
 ***** Axes restored to original set *****
 -------------------------------------------------------------------
 Center     Atomic                   Forces (Hartrees/Bohr)
 Number     Number              X              Y              Z
 -------------------------------------------------------------------
      1        6           0.000050674   -0.000162782   -0.000000000
      2        6          -0.000163479    0.000189172   -0.000000000
      3        6           0.000003409    0.000001833    0.000000000
      4        6           0.000067702   -0.000240682   -0.000000000
      5        6          -0.000107874    0.000132019   -0.000000000
      6        6          -0.000070228   -0.000037769   -0.000000000
      7        1           0.000064717    0.000034805    0.000000000
      8        1           0.000114118   -0.000018623    0.000000000
      9        1          -0.000032624    0.000052972    0.000000000
     10        1           0.000047376    0.000105476    0.000000000
     11        1           0.000026209   -0.000056422    0.000000000
 -------------------------------------------------------------------
 Cartesian Forces:  Max     0.000240682 RMS     0.000083377
 FormGI is forming the generalized inverse of G from B-inverse, IUseBI=4.

 GradGradGradGradGradGradGradGradGradGradGradGradGradGradGradGradGradGrad
 Berny optimization.
 Internal  Forces:  Max     0.000140411 RMS     0.000046777
 Search for a local minimum.
 Step number   1 out of a maximum of    2
 All quantities printed in internal units (Hartrees-Bohrs-Radians)
 Second derivative matrix not updated -- analytic derivatives used.
 ITU=  0
     Eigenvalues ---    0.01389   0.01488   0.02091   0.02426   0.02527
     Eigenvalues ---    0.02801   0.03157   0.03586   0.10375   0.10986
     Eigenvalues ---    0.11805   0.12166   0.12627   0.18863   0.19226
     Eigenvalues ---    0.20199   0.25648   0.32742   0.32820   0.34511
     Eigenvalues ---    0.34573   0.35410   0.38212   0.39207   0.45130
     Eigenvalues ---    0.45409   0.49790
 Angle between quadratic step and forces=  21.78 degrees.
 Linear search not attempted -- first point.
 Iteration  1 RMS(Cart)=  0.00038077 RMS(Int)=  0.00000020
 Iteration  2 RMS(Cart)=  0.00000020 RMS(Int)=  0.00000000
 ClnCor:  largest displacement from symmetrization is 2.34D-12 for atom     4.
 Variable       Old X    -DE/DX   Delta X   Delta X   Delta X     New X
                                 (Linear)    (Quad)   (Total)
    R1        2.64569  -0.00006   0.00000  -0.00012  -0.00012   2.64557
    R2        2.63526   0.00001   0.00000  -0.00003  -0.00003   2.63524
    R3        2.06043   0.00002   0.00000   0.00007   0.00007   2.06050
    R4        2.67753   0.00006   0.00000   0.00018   0.00018   2.67770
    R5        2.06763  -0.00006   0.00000  -0.00021  -0.00021   2.06742
    R6        2.67753   0.00006   0.00000   0.00018   0.00018   2.67770
    R7        2.64569  -0.00006   0.00000  -0.00012  -0.00012   2.64557
    R8        2.06763  -0.00006   0.00000  -0.00021  -0.00021   2.06742
    R9        2.63526   0.00001   0.00000  -0.00003  -0.00003   2.63524
   R10        2.06043   0.00002   0.00000   0.00007   0.00007   2.06050
   R11        2.05372  -0.00007   0.00000  -0.00024  -0.00024   2.05349
    A1        2.09469   0.00004   0.00000   0.00030   0.00030   2.09499
    A2        2.10203  -0.00014   0.00000  -0.00113  -0.00113   2.10089
    A3        2.08646   0.00010   0.00000   0.00084   0.00084   2.08730
    A4        2.18478  -0.00005   0.00000  -0.00022  -0.00022   2.18456
    A5        2.02479   0.00005   0.00000   0.00033   0.00033   2.02511
    A6        2.07362   0.00000   0.00000  -0.00011  -0.00011   2.07352
    A7        1.94752   0.00004   0.00000   0.00011   0.00011   1.94763
    A8        2.18478  -0.00005   0.00000  -0.00022  -0.00022   2.18456
    A9        2.07362   0.00000   0.00000  -0.00011  -0.00011   2.07352
   A10        2.02479   0.00005   0.00000   0.00033   0.00033   2.02511
   A11        2.09469   0.00004   0.00000   0.00030   0.00030   2.09499
   A12        2.10203  -0.00014   0.00000  -0.00113  -0.00113   2.10089
   A13        2.08646   0.00010   0.00000   0.00084   0.00084   2.08730
   A14        2.05991  -0.00002   0.00000  -0.00027  -0.00027   2.05965
   A15        2.11164   0.00001   0.00000   0.00013   0.00013   2.11177
   A16        2.11164   0.00001   0.00000   0.00013   0.00013   2.11177
    D1        0.00000  -0.00000   0.00000  -0.00000   0.00000   0.00000
    D2        3.14159   0.00000   0.00000   0.00000   0.00000   3.14159
    D3        3.14159  -0.00000   0.00000  -0.00000   0.00000   3.14159
    D4        0.00000   0.00000   0.00000  -0.00000   0.00000   0.00000
    D5        0.00000   0.00000   0.00000   0.00000   0.00000   0.00000
    D6        3.14159  -0.00000   0.00000  -0.00000   0.00000   3.14159
    D7        3.14159   0.00000   0.00000   0.00000   0.00000   3.14159
    D8       -0.00000   0.00000   0.00000   0.00000   0.00000   0.00000
    D9       -0.00000   0.00000   0.00000   0.00000   0.00000   0.00000
   D10        3.14159  -0.00000   0.00000  -0.00000   0.00000   3.14159
   D11        0.00000  -0.00000   0.00000   0.00000   0.00000   0.00000
   D12        3.14159   0.00000   0.00000   0.00000   0.00000   3.14159
   D13        0.00000  -0.00000   0.00000  -0.00000  -0.00000   0.00000
   D14        3.14159   0.00000   0.00000   0.00000   0.00000   3.14159
   D15        3.14159  -0.00000   0.00000  -0.00000   0.00000   3.14159
   D16       -0.00000   0.00000   0.00000   0.00000   0.00000   0.00000
   D17       -0.00000   0.00000   0.00000   0.00000   0.00000   0.00000
   D18        3.14159   0.00000   0.00000   0.00000   0.00000   3.14159
   D19        3.14159  -0.00000   0.00000  -0.00000   0.00000   3.14159
   D20        0.00000  -0.00000   0.00000  -0.00000   0.00000   0.00000
         Item               Value     Threshold  Converged?
 Maximum Force            0.000140     0.000450     YES
 RMS     Force            0.000047     0.000300     YES
 Maximum Displacement     0.001666     0.001800     YES
 RMS     Displacement     0.000381     0.001200     YES
 Predicted change in Energy=-3.279362D-07
 Optimization completed.
    -- Stationary point found.
                           ----------------------------
                           !   Optimized Parameters   !
                           ! (Angstroms and Degrees)  !
 --------------------------                            --------------------------
 ! Name  Definition              Value          Derivative Info.                !
 --------------------------------------------------------------------------------
 ! R1    R(1,2)                  1.4            -DE/DX =   -0.0001              !
 ! R2    R(1,6)                  1.3945         -DE/DX =    0.0                 !
 ! R3    R(1,10)                 1.0903         -DE/DX =    0.0                 !
 ! R4    R(2,3)                  1.4169         -DE/DX =    0.0001              !
 ! R5    R(2,11)                 1.0941         -DE/DX =   -0.0001              !
 ! R6    R(3,4)                  1.4169         -DE/DX =    0.0001              !
 ! R7    R(4,5)                  1.4            -DE/DX =   -0.0001              !
 ! R8    R(4,9)                  1.0941         -DE/DX =   -0.0001              !
 ! R9    R(5,6)                  1.3945         -DE/DX =    0.0                 !
 ! R10   R(5,8)                  1.0903         -DE/DX =    0.0                 !
 ! R11   R(6,7)                  1.0868         -DE/DX =   -0.0001              !
 ! A1    A(2,1,6)              120.0171         -DE/DX =    0.0                 !
 ! A2    A(2,1,10)             120.4374         -DE/DX =   -0.0001              !
 ! A3    A(6,1,10)             119.5456         -DE/DX =    0.0001              !
 ! A4    A(1,2,3)              125.1784         -DE/DX =   -0.0001              !
 ! A5    A(1,2,11)             116.0117         -DE/DX =    0.0001              !
 ! A6    A(3,2,11)             118.8099         -DE/DX =    0.0                 !
 ! A7    A(2,3,4)              111.5847         -DE/DX =    0.0                 !
 ! A8    A(3,4,5)              125.1784         -DE/DX =   -0.0001              !
 ! A9    A(3,4,9)              118.8099         -DE/DX =    0.0                 !
 ! A10   A(5,4,9)              116.0117         -DE/DX =    0.0001              !
 ! A11   A(4,5,6)              120.0171         -DE/DX =    0.0                 !
 ! A12   A(4,5,8)              120.4374         -DE/DX =   -0.0001              !
 ! A13   A(6,5,8)              119.5456         -DE/DX =    0.0001              !
 ! A14   A(1,6,5)              118.0244         -DE/DX =    0.0                 !
 ! A15   A(1,6,7)              120.9878         -DE/DX =    0.0                 !
 ! A16   A(5,6,7)              120.9878         -DE/DX =    0.0                 !
 ! D1    D(6,1,2,3)              0.0            -DE/DX =    0.0                 !
 ! D2    D(6,1,2,11)           180.0            -DE/DX =    0.0                 !
 ! D3    D(10,1,2,3)           180.0            -DE/DX =    0.0                 !
 ! D4    D(10,1,2,11)            0.0            -DE/DX =    0.0                 !
 ! D5    D(2,1,6,5)              0.0            -DE/DX =    0.0                 !
 ! D6    D(2,1,6,7)            180.0            -DE/DX =    0.0                 !
 ! D7    D(10,1,6,5)           180.0            -DE/DX =    0.0                 !
 ! D8    D(10,1,6,7)             0.0            -DE/DX =    0.0                 !
 ! D9    D(1,2,3,4)              0.0            -DE/DX =    0.0                 !
 ! D10   D(11,2,3,4)           180.0            -DE/DX =    0.0                 !
 ! D11   D(2,3,4,5)              0.0            -DE/DX =    0.0                 !
 ! D12   D(2,3,4,9)            180.0            -DE/DX =    0.0                 !
 ! D13   D(3,4,5,6)              0.0            -DE/DX =    0.0                 !
 ! D14   D(3,4,5,8)            180.0            -DE/DX =    0.0                 !
 ! D15   D(9,4,5,6)            180.0            -DE/DX =    0.0                 !
 ! D16   D(9,4,5,8)              0.0            -DE/DX =    0.0                 !
 ! D17   D(4,5,6,1)              0.0            -DE/DX =    0.0                 !
 ! D18   D(4,5,6,7)            180.0            -DE/DX =    0.0                 !
 ! D19   D(8,5,6,1)            180.0            -DE/DX =    0.0                 !
 ! D20   D(8,5,6,7)              0.0            -DE/DX =    0.0                 !
 --------------------------------------------------------------------------------
 GradGradGradGradGradGradGradGradGradGradGradGradGradGradGradGradGradGrad


 ----------------------------------------------------------------------

 Electric dipole moment (input orientation):
 (Debye = 10**-18 statcoulomb cm , SI units = C m)
                  (au)            (Debye)         (10**-30 SI)
   Tot        0.219719D+01      0.558469D+01      0.186285D+02
   x         -0.193508D+01     -0.491849D+01     -0.164063D+02
   y         -0.104071D+01     -0.264523D+01     -0.882353D+01
   z          0.000000D+00      0.000000D+00      0.000000D+00

 Dipole polarizability, Alpha (input orientation).
 (esu units = cm**3 , SI units = C**2 m**2 J**-1)
 Alpha(0;0):
               (au)            (10**-24 esu)      (10**-40 SI)
   iso        0.901863D+02      0.133642D+02      0.148697D+02
   aniso      0.499062D+02      0.739534D+01      0.822843D+01
   xx         0.110774D+03      0.164150D+02      0.182642D+02
   yx         0.710626D+01      0.105304D+01      0.117166D+01
   yy         0.101383D+03      0.150233D+02      0.167157D+02
   zx         0.000000D+00      0.000000D+00      0.000000D+00
   zy         0.000000D+00      0.000000D+00      0.000000D+00
   zz         0.584024D+02      0.865434D+01      0.962925D+01

 ----------------------------------------------------------------------

 Dipole orientation:
     6         -1.45101807          2.69799965          0.96286394
     6         -1.42978742          2.65852372         -1.68244372
     6         -0.38095623          0.70834388         -3.18773303
     6          0.66787496         -1.24183596         -1.68244372
     6          0.68910561         -1.28131189          0.96286394
     6         -0.38095623          0.70834388          2.31964427
     1         -0.38095623          0.70834388          4.37336590
     1          1.53879805         -2.86121634          1.97642490
     1          1.54061491         -2.86459457         -2.62056211
     1         -2.30071051          4.27790411          1.97642490
     1         -2.30252736          4.28128233         -2.62056211

 Electric dipole moment (dipole orientation):
 (Debye = 10**-18 statcoulomb cm , SI units = C m)
                  (au)            (Debye)         (10**-30 SI)
   Tot        0.219719D+01      0.558469D+01      0.186285D+02
   x          0.000000D+00      0.000000D+00      0.000000D+00
   y          0.000000D+00      0.000000D+00      0.000000D+00
   z          0.219719D+01      0.558469D+01      0.186285D+02

 Dipole polarizability, Alpha (dipole orientation).
 (esu units = cm**3 , SI units = C**2 m**2 J**-1)
 Alpha(0;0):
               (au)            (10**-24 esu)      (10**-40 SI)
   iso        0.901863D+02      0.133642D+02      0.148697D+02
   aniso      0.499062D+02      0.739534D+01      0.822843D+01
   xx         0.671876D+02      0.995617D+01      0.110777D+02
   yx        -0.163350D+02     -0.242060D+01     -0.269328D+01
   yy         0.887755D+02      0.131552D+02      0.146371D+02
   zx         0.000000D+00      0.000000D+00      0.000000D+00
   zy         0.000000D+00      0.000000D+00      0.000000D+00
   zz         0.114596D+03      0.169813D+02      0.188943D+02

 ----------------------------------------------------------------------
 1\1\GINC-SH03-01N13\Freq\RM062X\6-311++G(d,p)\C6H5(1-)\JLAPIER\03-Apr-
 2026\0\\#N Geom=AllCheck Guess=TCheck SCRF=Check GenChk RM062X/6-311++
 G(d,p) Freq\\benzene anion radical\\-1,1\C,-1.2165898168,1.1863797082,
 0.\C,0.0274944001,1.8285318455,0.\C,1.2840542142,1.1738393437,0.\C,1.1
 375295255,-0.2354496096,0.\C,-0.0840851394,-0.9193812704,0.\C,-1.28266
 69061,-0.206575482,0.\H,-2.2398068264,-0.7213373412,0.\H,-0.1068188071
 ,-2.0094780495,0.\H,2.0365750406,-0.8590386968,0.\H,-2.1385992382,1.76
 83817993,0.\H,0.002871735,2.9223965137,0.\\Version=ES64L-G16RevB.01\St
 ate=1-A1\HF=-231.5499109\RMSD=1.164e-09\RMSF=8.338e-05\ZeroPoint=0.085
 7665\Thermal=0.0902335\Dipole=-1.9350837,-1.0407123,0.\DipoleDeriv=0.0
 255813,0.0253388,0.,0.02096,0.1784872,0.,0.,0.,-0.1426895,-0.1474098,-
 0.2289709,0.,-0.1988263,0.2114968,0.,0.,0.,-0.1774354,-0.2790538,0.218
 6115,0.,0.2186115,-0.5679645,0.,0.,0.,-0.6338241,-0.0943523,-0.2338859
 ,0.,-0.2640305,0.1584393,0.,0.,0.,-0.1774354,0.1533096,-0.0634411,0.,-
 0.0590623,0.0507588,0.,0.,0.,-0.1426895,-0.1305192,0.0331425,0.,0.0331
 425,-0.1743194,0.,0.,0.,-0.25906,-0.1674339,-0.1142894,0.,-0.1142894,-
 0.0163923,0.,0.,0.,0.1388608,0.0225201,-0.0180216,0.,-0.0502073,-0.330
 8487,0.,0.,0.,0.1240929,-0.1297478,0.2104387,0.,0.1250304,-0.1622376,0
 .,0.,0.,0.0730436,-0.2548313,0.1330625,0.,0.1652482,-0.0534972,0.,0.,0
 .,0.1240929,0.001937,0.038015,0.,0.1234232,-0.2939224,0.,0.,0.,0.07304
 36\Polar=110.7739424,7.1062584,101.3825151,0.,0.,58.4023759\Quadrupole
 =-4.3033373,1.8685267,2.4348106,-4.6700951,0.,0.\PG=C02V [C2(H1C1C1),S
 GV(C4H4)]\NImag=0\\0.67826662,-0.03031776,0.68235765,0.,0.,0.11565418,
 -0.27134756,-0.03893914,0.,0.58393618,-0.11831619,-0.16714608,0.,0.012
 01664,0.66988076,0.,0.,-0.05784714,0.,0.,0.13124302,-0.04992020,-0.021
 56563,0.,-0.23834025,0.08170077,0.,0.37319218,0.02960563,0.06453979,0.
 ,0.06923711,-0.14213769,0.,-0.06756019,0.46247780,0.,0.,0.01717938,0.,
 0.,-0.04887116,0.,0.,0.06485229,-0.02281673,-0.03649410,0.,0.03159325,
 0.03730559,0.,-0.10195225,-0.00842247,0.,0.65481378,-0.02140647,-0.048
 08504,0.,0.05134541,-0.02698606,0.,-0.02088613,-0.27852570,0.,-0.03481
 826,0.59900316,0.,0.,-0.00659099,0.,0.,-0.00448783,0.,0.,-0.04887116,0
 .,0.,0.13124302,0.03222706,0.07842604,0.,-0.06703677,-0.00727413,0.,0.
 03344996,-0.07665543,0.,-0.27114611,-0.03907225,0.,0.65322477,0.024080
 11,-0.03550753,0.,0.00781350,-0.00386500,0.,-0.02548417,-0.01883036,0.
 ,-0.11844931,-0.16734752,0.,-0.01377047,0.70739949,0.,0.,0.00114785,0.
 ,0.,-0.00659099,0.,0.,0.01717939,0.,0.,-0.05784714,0.,0.,0.11565418,-0
 .12051327,-0.04382636,0.,0.02791823,-0.02595559,0.,-0.01260198,0.03101
 514,0.,-0.06159311,-0.02670096,0.,-0.28080456,0.13021792,0.,0.71581716
 ,0.02429973,-0.33789087,0.,-0.08584877,-0.02679841,0.,0.03101513,-0.05
 359069,0.,0.03319222,0.06271293,0.,0.06209183,-0.17759958,0.,0.0307847
 7,0.67513289,0.,0.,-0.04772667,0.,0.,0.00321380,0.,0.,-0.00521637,0.,0
 .,0.00321380,0.,0.,-0.04772667,0.,0.,0.10453718,0.00055161,0.00185228,
 0.,0.00260091,-0.00058652,0.,0.00043405,0.00057663,0.,-0.00257569,0.00
 563039,0.,-0.01864949,-0.01801565,0.,-0.26850526,-0.11296467,0.,0.2860
 2819,-0.03070347,-0.00796896,0.,0.00220977,-0.00590861,0.,0.00057663,-
 0.00032800,0.,0.00283410,-0.00073201,0.,0.01454009,0.01123214,0.,-0.11
 296467,-0.11921438,0.,0.12409101,0.12203307,0.,0.,-0.00095944,0.,0.,0.
 00845432,0.,0.,-0.00417854,0.,0.,0.00845432,0.,0.,-0.00095944,0.,0.,-0
 .02630818,0.,0.,0.02177784,-0.00431861,0.00255441,0.,-0.00178296,0.000
 05385,0.,-0.00390487,-0.00218488,0.,0.00602353,-0.02820266,0.,-0.05821
 630,-0.00580924,0.,0.00538081,0.02765372,0.,0.00087424,-0.00075860,0.,
 0.05503770,0.00435367,0.00114611,0.,-0.00054380,0.00113063,0.,-0.00513
 417,-0.00070581,0.,0.00520713,-0.01316760,0.,-0.00359474,-0.31936564,0
 .,-0.00459793,-0.01364599,0.,0.00097170,0.00092201,0.,0.00437132,0.343
 82815,0.,0.,0.00895241,0.,0.,-0.00034523,0.,0.,0.00651704,0.,0.,0.0023
 3376,0.,0.,-0.03188341,0.,0.,0.00004006,0.,0.,-0.00363157,0.,0.,0.0230
 4805,0.00087092,-0.00089368,0.,0.00222994,-0.00001750,0.,0.00667534,0.
 00179814,0.,-0.22945617,0.11011747,0.,-0.02403539,0.01922031,0.,-0.003
 73654,-0.00500271,0.,-0.00153506,0.00083684,0.,0.00070344,-0.00075829,
 0.,0.24835185,-0.00122640,-0.00138684,0.,0.00233190,-0.00668396,0.,0.0
 2124717,-0.02099801,0.,0.11740339,-0.12465631,0.,-0.01342141,0.0085592
 6,0.,-0.00260948,0.00076717,0.,-0.00068365,0.00024002,0.,0.00086491,0.
 00084244,0.,-0.12533180,0.14394096,0.,0.,-0.00154765,0.,0.,0.01054725,
 0.,0.,-0.00255395,0.,0.,-0.03764978,0.,0.,0.00362147,0.,0.,0.00796650,
 0.,0.,0.00049113,0.,0.,-0.00344583,0.,0.,0.02472668,-0.24431983,0.1193
 7981,0.,-0.01791169,0.02102318,0.,-0.00504452,-0.00438111,0.,0.0000197
 4,-0.00173500,0.,0.00266261,-0.00025942,0.,0.00274141,-0.00285385,0.,0
 .00100551,0.00088496,0.,-0.00006745,-0.00031406,0.,-0.00001220,0.00022
 597,0.,0.26007719,0.11716531,-0.13326211,0.,-0.01238661,0.01076762,0.,
 -0.00143181,0.00043385,0.,-0.00113736,-0.00067208,0.,-0.00205868,-0.00
 583511,0.,0.02939780,-0.01100659,0.,-0.00084534,0.00079075,0.,0.001514
 33,-0.00086058,0.,0.00012962,0.00015893,0.,-0.13111584,0.13878867,0.,0
 .,-0.03188341,0.,0.,0.00233376,0.,0.,0.00651704,0.,0.,-0.00034523,0.,0
 .,0.00895241,0.,0.,0.00004006,0.,0.,-0.00363157,0.,0.,0.00067509,0.,0.
 ,-0.00226036,0.,0.,0.02304805,0.00131998,-0.03017587,0.,-0.05185928,0.
 00004991,0.,-0.00198748,0.02697144,0.,-0.00291024,0.00572846,0.,-0.001
 67578,0.00045642,0.,-0.00410290,-0.00236739,0.,-0.00022902,-0.00154666
 ,0.,0.00027047,0.00003918,0.,-0.00005614,0.00119940,0.,0.00084924,0.00
 076857,0.,0.06038114,0.00246585,-0.01679611,0.,-0.00723601,-0.30225319
 ,0.,0.00752241,-0.01233518,0.,0.00337906,-0.00154378,0.,0.00078914,0.0
 0115986,0.,-0.00476063,0.00113352,0.,-0.00002617,-0.00106602,0.,-0.000
 05717,-0.00012374,0.,-0.00009840,-0.00078366,0.,-0.00085463,0.00069664
 ,0.,-0.00112345,0.33191167,0.,0.,0.00362147,0.,0.,-0.03764978,0.,0.,-0
 .00255395,0.,0.,0.01054725,0.,0.,-0.00154765,0.,0.,0.00796650,0.,0.,0.
 00049113,0.,0.,-0.00226036,0.,0.,0.00010455,0.,0.,-0.00344583,0.,0.,0.
 02472668\\-0.00005067,0.00016278,0.,0.00016348,-0.00018917,0.,-0.00000
 341,-0.00000183,0.,-0.00006770,0.00024068,0.,0.00010787,-0.00013202,0.
 ,0.00007023,0.00003777,0.,-0.00006472,-0.00003481,0.,-0.00011412,0.000
 01862,0.,0.00003262,-0.00005297,0.,-0.00004738,-0.00010548,0.,-0.00002
 621,0.00005642,0.\\\@


 IF YOU GET CONFUSED, LOGIC OUT YOUR DILEMMA

           --  PICKER X-RAY CORP.    DIGITAL PRINTER MANUAL CA. 1964
 Job cpu time:       0 days  0 hours  9 minutes  3.9 seconds.
 Elapsed time:       0 days  0 hours  2 minutes 17.2 seconds.
 File lengths (MBytes):  RWF=     63 Int=      0 D2E=      0 Chk=      4 Scr=      1
 Normal termination of Gaussian 16 at Fri Apr  3 14:15:49 2026.
