 Entering Gaussian System, Link 0=g16
 Initial command:
 /share/software/user/restricted/gaussian/g16.B01/l1.exe "/home/users/jlapier/Chloroaromatics/Gau-28530.inp" -scrdir="/home/users/jlapier/Chloroaromatics/"
 Entering Link 1 = /share/software/user/restricted/gaussian/g16.B01/l1.exe PID=     28532.
  
 Copyright (c) 1988-2017, Gaussian, Inc.  All Rights Reserved.
  
 This is part of the Gaussian(R) 16 program.  It is based on
 the Gaussian(R) 09 system (copyright 2009, Gaussian, Inc.),
 the Gaussian(R) 03 system (copyright 2003, Gaussian, Inc.),
 the Gaussian(R) 98 system (copyright 1998, Gaussian, Inc.),
 the Gaussian(R) 94 system (copyright 1995, Gaussian, Inc.),
 the Gaussian 92(TM) system (copyright 1992, Gaussian, Inc.),
 the Gaussian 90(TM) system (copyright 1990, Gaussian, Inc.),
 the Gaussian 88(TM) system (copyright 1988, Gaussian, Inc.),
 the Gaussian 86(TM) system (copyright 1986, Carnegie Mellon
 University), and the Gaussian 82(TM) system (copyright 1983,
 Carnegie Mellon University). Gaussian is a federally registered
 trademark of Gaussian, Inc.
  
 This software contains proprietary and confidential information,
 including trade secrets, belonging to Gaussian, Inc.
  
 This software is provided under written license and may be
 used, copied, transmitted, or stored only in accord with that
 written license.
  
 The following legend is applicable only to US Government
 contracts under FAR:
  
                    RESTRICTED RIGHTS LEGEND
  
 Use, reproduction and disclosure by the US Government is
 subject to restrictions as set forth in subparagraphs (a)
 and (c) of the Commercial Computer Software - Restricted
 Rights clause in FAR 52.227-19.
  
 Gaussian, Inc.
 340 Quinnipiac St., Bldg. 40, Wallingford CT 06492
  
  
 ---------------------------------------------------------------
 Warning -- This program may not be used in any manner that
 competes with the business of Gaussian, Inc. or will provide
 assistance to any competitor of Gaussian, Inc.  The licensee
 of this program is prohibited from giving any competitor of
 Gaussian, Inc. access to this program.  By using this program,
 the user acknowledges that Gaussian, Inc. is engaged in the
 business of creating and licensing software in the field of
 computational chemistry and represents and warrants to the
 licensee that it is not a competitor of Gaussian, Inc. and that
 it will not use this program in any manner prohibited above.
 ---------------------------------------------------------------
  

 Cite this work as:
 Gaussian 16, Revision B.01,
 M. J. Frisch, G. W. Trucks, H. B. Schlegel, G. E. Scuseria, 
 M. A. Robb, J. R. Cheeseman, G. Scalmani, V. Barone, 
 G. A. Petersson, H. Nakatsuji, X. Li, M. Caricato, A. V. Marenich, 
 J. Bloino, B. G. Janesko, R. Gomperts, B. Mennucci, H. P. Hratchian, 
 J. V. Ortiz, A. F. Izmaylov, J. L. Sonnenberg, D. Williams-Young, 
 F. Ding, F. Lipparini, F. Egidi, J. Goings, B. Peng, A. Petrone, 
 T. Henderson, D. Ranasinghe, V. G. Zakrzewski, J. Gao, N. Rega, 
 G. Zheng, W. Liang, M. Hada, M. Ehara, K. Toyota, R. Fukuda, 
 J. Hasegawa, M. Ishida, T. Nakajima, Y. Honda, O. Kitao, H. Nakai, 
 T. Vreven, K. Throssell, J. A. Montgomery, Jr., J. E. Peralta, 
 F. Ogliaro, M. J. Bearpark, J. J. Heyd, E. N. Brothers, K. N. Kudin, 
 V. N. Staroverov, T. A. Keith, R. Kobayashi, J. Normand, 
 K. Raghavachari, A. P. Rendell, J. C. Burant, S. S. Iyengar, 
 J. Tomasi, M. Cossi, J. M. Millam, M. Klene, C. Adamo, R. Cammi, 
 J. W. Ochterski, R. L. Martin, K. Morokuma, O. Farkas, 
 J. B. Foresman, and D. J. Fox, Gaussian, Inc., Wallingford CT, 2016.
 
 ******************************************
 Gaussian 16:  ES64L-G16RevB.01 20-Dec-2017
                 3-Apr-2026 
 ******************************************
 %mem=8GB
 %nprocshare=4
 Will use up to    4 processors via shared memory.
 %chk=frequency_chks/Hexachlorobenzene_anion_product_Freq.chk
 ------------------------------
 # opt freq 6-311++g(d,p) m062x
 ------------------------------
 1/18=20,19=15,26=3,38=1/1,3;
 2/9=110,12=2,17=6,18=5,40=1/2;
 3/5=4,6=6,7=1111,11=2,25=1,30=1,71=1,74=-55/1,2,3;
 4//1;
 5/5=2,38=5/2;
 6/7=2,8=2,9=2,10=2,28=1/1;
 7//1,2,3,16;
 1/18=20,19=15,26=3/3(2);
 2/9=110/2;
 99//99;
 2/9=110/2;
 3/5=4,6=6,7=1111,11=2,25=1,30=1,71=1,74=-55/1,2,3;
 4/5=5,16=3,69=1/1;
 5/5=2,38=5/2;
 7//1,2,3,16;
 1/18=20,19=15,26=3/3(-5);
 2/9=110/2;
 6/7=2,8=2,9=2,10=2,19=2,28=1/1;
 99/9=1/99;
 ----------------------------------------
 1,2,4,5 Tetrachlorobenzene anion radical
 ----------------------------------------
 Symbolic Z-matrix:
 Charge = -1 Multiplicity = 1
 C                     1.21059   0.69489   0. 
 C                     1.21059  -0.69488   0. 
 C                     0.00001  -1.37158   0. 
 C                    -1.21056  -0.69489   0. 
 C                    -1.21056   0.69489   0. 
 C                     0.00001   1.37158   0. 
 Cl                   -0.00002   3.1225    0. 
 Cl                    2.14548   1.24166   0. 
 Cl                   -0.00002  -3.1225    0. 
 Cl                   -2.14542  -1.24169   0. 
 Cl                   -2.14542   1.24169   0. 
 

 GradGradGradGradGradGradGradGradGradGradGradGradGradGradGradGradGradGrad
 Berny optimization.
 Initialization pass.
                           ----------------------------
                           !    Initial Parameters    !
                           ! (Angstroms and Degrees)  !
 --------------------------                            --------------------------
 ! Name  Definition              Value          Derivative Info.                !
 --------------------------------------------------------------------------------
 ! R1    R(1,2)                  1.3898         estimate D2E/DX2                !
 ! R2    R(1,6)                  1.3869         estimate D2E/DX2                !
 ! R3    R(1,8)                  1.083          estimate D2E/DX2                !
 ! R4    R(2,3)                  1.3869         estimate D2E/DX2                !
 ! R5    R(3,4)                  1.3869         estimate D2E/DX2                !
 ! R6    R(3,9)                  1.7509         estimate D2E/DX2                !
 ! R7    R(4,5)                  1.3898         estimate D2E/DX2                !
 ! R8    R(4,10)                 1.083          estimate D2E/DX2                !
 ! R9    R(5,6)                  1.3869         estimate D2E/DX2                !
 ! R10   R(5,11)                 1.083          estimate D2E/DX2                !
 ! R11   R(6,7)                  1.7509         estimate D2E/DX2                !
 ! A1    A(2,1,6)              119.2045         estimate D2E/DX2                !
 ! A2    A(2,1,8)              120.3215         estimate D2E/DX2                !
 ! A3    A(6,1,8)              120.474          estimate D2E/DX2                !
 ! A4    A(1,2,3)              119.2046         estimate D2E/DX2                !
 ! A5    A(2,3,4)              121.591          estimate D2E/DX2                !
 ! A6    A(2,3,9)              119.2056         estimate D2E/DX2                !
 ! A7    A(4,3,9)              119.2034         estimate D2E/DX2                !
 ! A8    A(3,4,5)              119.2044         estimate D2E/DX2                !
 ! A9    A(3,4,10)             120.472          estimate D2E/DX2                !
 ! A10   A(5,4,10)             120.3236         estimate D2E/DX2                !
 ! A11   A(4,5,6)              119.2045         estimate D2E/DX2                !
 ! A12   A(4,5,11)             120.3236         estimate D2E/DX2                !
 ! A13   A(6,5,11)             120.4719         estimate D2E/DX2                !
 ! A14   A(1,6,5)              121.591          estimate D2E/DX2                !
 ! A15   A(1,6,7)              119.2055         estimate D2E/DX2                !
 ! A16   A(5,6,7)              119.2035         estimate D2E/DX2                !
 ! D1    D(6,1,2,3)              0.0            estimate D2E/DX2                !
 ! D2    D(8,1,2,3)            180.0            estimate D2E/DX2                !
 ! D3    D(2,1,6,5)              0.0            estimate D2E/DX2                !
 ! D4    D(2,1,6,7)            180.0            estimate D2E/DX2                !
 ! D5    D(8,1,6,5)            180.0            estimate D2E/DX2                !
 ! D6    D(8,1,6,7)              0.0            estimate D2E/DX2                !
 ! D7    D(1,2,3,4)              0.0            estimate D2E/DX2                !
 ! D8    D(1,2,3,9)            180.0            estimate D2E/DX2                !
 ! D9    D(2,3,4,5)              0.0            estimate D2E/DX2                !
 ! D10   D(2,3,4,10)           180.0            estimate D2E/DX2                !
 ! D11   D(9,3,4,5)            180.0            estimate D2E/DX2                !
 ! D12   D(9,3,4,10)             0.0            estimate D2E/DX2                !
 ! D13   D(3,4,5,6)              0.0            estimate D2E/DX2                !
 ! D14   D(3,4,5,11)           180.0            estimate D2E/DX2                !
 ! D15   D(10,4,5,6)           180.0            estimate D2E/DX2                !
 ! D16   D(10,4,5,11)            0.0            estimate D2E/DX2                !
 ! D17   D(4,5,6,1)              0.0            estimate D2E/DX2                !
 ! D18   D(4,5,6,7)            180.0            estimate D2E/DX2                !
 ! D19   D(11,5,6,1)           180.0            estimate D2E/DX2                !
 ! D20   D(11,5,6,7)             0.0            estimate D2E/DX2                !
 --------------------------------------------------------------------------------
 Trust Radius=3.00D-01 FncErr=1.00D-07 GrdErr=1.00D-06 EigMax=2.50D+02 EigMin=1.00D-04
 Number of steps in this run=     57 maximum allowed number of steps=    100.
 GradGradGradGradGradGradGradGradGradGradGradGradGradGradGradGradGradGrad

                          Input orientation:                          
 ---------------------------------------------------------------------
 Center     Atomic      Atomic             Coordinates (Angstroms)
 Number     Number       Type             X           Y           Z
 ---------------------------------------------------------------------
      1          6           0        1.210589    0.694885    0.000000
      2          6           0        1.210588   -0.694884    0.000000
      3          6           0        0.000013   -1.371579    0.000000
      4          6           0       -1.210563   -0.694888    0.000000
      5          6           0       -1.210562    0.694887    0.000000
      6          6           0        0.000013    1.371579    0.000000
      7         17           0       -0.000017    3.122505    0.000000
      8         17           0        2.145475    1.241659    0.000000
      9         17           0       -0.000018   -3.122505    0.000000
     10         17           0       -2.145418   -1.241690    0.000000
     11         17           0       -2.145418    1.241690    0.000000
 ---------------------------------------------------------------------
                    Distance matrix (angstroms):
                    1          2          3          4          5
     1  C    0.000000
     2  C    1.389769   0.000000
     3  C    2.394946   1.386870   0.000000
     4  C    2.791674   2.421151   1.386869   0.000000
     5  C    2.421151   2.791672   2.394948   1.389775   0.000000
     6  C    1.386870   2.394945   2.743158   2.394949   1.386868
     7  Cl   2.712730   4.004750   4.494084   4.004736   2.712701
     8  Cl   1.083039   2.150398   3.381127   3.874688   3.400286
     9  Cl   4.004752   2.712731   1.750926   2.712700   4.004735
    10  Cl   3.874675   3.400261   2.149359   1.083026   2.150415
    11  Cl   3.400262   3.874674   3.381131   2.150416   1.083028
                    6          7          8          9         10
     6  C    0.000000
     7  Cl   1.750926   0.000000
     8  Cl   2.149392   2.853194   0.000000
     9  Cl   4.494084   6.245010   4.863031   0.000000
    10  Cl   3.381131   4.863018   4.957700   2.853105   0.000000
    11  Cl   2.149359   2.853105   4.290893   4.863017   2.483380
                   11
    11  Cl   0.000000
 Stoichiometry    C6Cl5(1-)
 Framework group  CS[SG(C6Cl5)]
 Deg. of freedom    19
 Full point group                 CS      NOp   2
 Largest Abelian subgroup         CS      NOp   2
 Largest concise Abelian subgroup C1      NOp   1
                         Standard orientation:                         
 ---------------------------------------------------------------------
 Center     Atomic      Atomic             Coordinates (Angstroms)
 Number     Number       Type             X           Y           Z
 ---------------------------------------------------------------------
      1          6           0       -1.512004   -0.520438    0.000000
      2          6           0       -1.512004    0.869331    0.000000
      3          6           0       -0.301430    1.546027    0.000000
      4          6           0        0.909147    0.869337    0.000000
      5          6           0        0.909147   -0.520438    0.000000
      6          6           0       -0.301428   -1.197131    0.000000
      7         17           0       -0.301396   -2.948057    0.000000
      8         17           0       -2.446890   -1.067213    0.000000
      9         17           0       -0.301400    3.296953    0.000000
     10         17           0        1.844002    1.416139    0.000000
     11         17           0        1.844003   -1.067241    0.000000
 ---------------------------------------------------------------------
 Rotational constants (GHZ):           1.0061606           0.5419849           0.3522433
 Standard basis: 6-311++G(d,p) (5D, 7F)
 There are   217 symmetry adapted cartesian basis functions of A'  symmetry.
 There are    76 symmetry adapted cartesian basis functions of A"  symmetry.
 There are   206 symmetry adapted basis functions of A'  symmetry.
 There are    76 symmetry adapted basis functions of A"  symmetry.
   282 basis functions,   481 primitive gaussians,   293 cartesian basis functions
    61 alpha electrons       61 beta electrons
       nuclear repulsion energy      1214.8499113440 Hartrees.
 NAtoms=   11 NActive=   11 NUniq=   11 SFac= 1.00D+00 NAtFMM=   60 NAOKFM=F Big=F
 Integral buffers will be    131072 words long.
 Raffenetti 2 integral format.
 Two-electron integral symmetry is turned on.
 One-electron integrals computed using PRISM.
 NBasis=   282 RedAO= T EigKep=  1.18D-06  NBF=   206    76
 NBsUse=   280 1.00D-06 EigRej=  3.76D-07 NBFU=   204    76
 ExpMin= 4.38D-02 ExpMax= 1.06D+05 ExpMxC= 3.62D+03 IAcc=3 IRadAn=         5 AccDes= 0.00D+00
 Harris functional with IExCor= 1009 and IRadAn=       5 diagonalized for initial guess.
 HarFok:  IExCor= 1009 AccDes= 0.00D+00 IRadAn=         5 IDoV= 1 UseB2=F ITyADJ=14
 ICtDFT=  3500011 ScaDFX=  1.000000  1.000000  1.000000  1.000000
 FoFCou: FMM=F IPFlag=           0 FMFlag=      100000 FMFlg1=           0
         NFxFlg=           0 DoJE=T BraDBF=F KetDBF=T FulRan=T
         wScrn=  0.000000 ICntrl=       500 IOpCl=  0 I1Cent=   200000004 NGrid=           0
         NMat0=    1 NMatS0=      1 NMatT0=    0 NMatD0=    1 NMtDS0=    0 NMtDT0=    0
 Petite list used in FoFCou.
 Initial guess orbital symmetries:
       Occupied  (A') (A') (A') (A') (A') (A') (A') (A') (A') (A')
                 (A') (A') (A') (A') (A') (A') (A') (A') (A') (A')
                 (A") (A') (A') (A") (A") (A') (A') (A") (A') (A")
                 (A') (A') (A') (A') (A') (A') (A') (A') (A') (A')
                 (A') (A") (A') (A") (A") (A') (A') (A') (A') (A')
                 (A") (A') (A") (A') (A') (A') (A") (A') (A') (A")
                 (A")
       Virtual   (A") (A") (A') (A') (A") (A') (A') (A') (A') (A")
                 (A') (A') (A') (A") (A') (A") (A') (A') (A') (A")
                 (A') (A") (A') (A") (A') (A') (A') (A') (A") (A')
                 (A') (A") (A') (A") (A') (A') (A') (A") (A') (A')
                 (A') (A") (A') (A') (A') (A') (A') (A') (A') (A')
                 (A') (A') (A') (A') (A') (A") (A') (A') (A") (A')
                 (A") (A') (A") (A') (A') (A") (A') (A") (A') (A")
                 (A') (A') (A") (A') (A') (A") (A') (A") (A') (A")
                 (A') (A") (A') (A') (A') (A') (A') (A") (A') (A')
                 (A") (A") (A") (A') (A') (A") (A') (A") (A") (A')
                 (A') (A") (A') (A') (A') (A') (A") (A') (A") (A')
                 (A') (A') (A') (A') (A') (A') (A") (A") (A') (A')
                 (A') (A') (A') (A') (A") (A') (A') (A') (A") (A')
                 (A') (A") (A') (A') (A') (A') (A") (A") (A") (A')
                 (A') (A') (A") (A') (A") (A') (A") (A") (A') (A')
                 (A") (A") (A") (A') (A") (A') (A') (A') (A') (A')
                 (A") (A') (A') (A') (A') (A') (A') (A") (A") (A')
                 (A") (A") (A') (A') (A") (A') (A') (A') (A') (A')
                 (A') (A') (A') (A') (A') (A') (A') (A') (A') (A')
                 (A') (A') (A') (A') (A') (A') (A') (A') (A') (A")
                 (A") (A") (A") (A") (A') (A') (A') (A') (A') (A')
                 (A') (A') (A') (A') (A') (A') (A') (A') (A')
 The electronic state of the initial guess is 1-A'.
 Requested convergence on RMS density matrix=1.00D-08 within 128 cycles.
 Requested convergence on MAX density matrix=1.00D-06.
 Requested convergence on             energy=1.00D-06.
 No special actions if energy rises.
 SCF Done:  E(RM062X) =  -2527.39330567     A.U. after   20 cycles
            NFock= 20  Conv=0.94D-08     -V/T= 1.9967

 **********************************************************************

            Population analysis using the SCF Density.

 **********************************************************************

 Orbital symmetries:
       Occupied  (A') (A') (A') (A') (A') (A') (A') (A') (A') (A')
                 (A') (A') (A') (A') (A') (A') (A') (A') (A") (A')
                 (A") (A') (A') (A') (A") (A') (A") (A') (A') (A")
                 (A') (A') (A') (A') (A') (A') (A') (A') (A') (A')
                 (A') (A") (A') (A') (A") (A') (A") (A') (A') (A')
                 (A") (A") (A') (A') (A') (A') (A") (A') (A") (A')
                 (A")
       Virtual   (A') (A') (A') (A") (A') (A") (A') (A') (A") (A")
                 (A') (A') (A') (A") (A') (A") (A') (A') (A") (A')
                 (A") (A') (A') (A') (A") (A') (A") (A') (A') (A")
                 (A') (A") (A') (A") (A') (A') (A") (A') (A') (A')
                 (A') (A') (A') (A') (A') (A') (A') (A') (A') (A')
                 (A') (A') (A') (A') (A") (A') (A') (A") (A") (A')
                 (A') (A") (A') (A') (A") (A') (A") (A') (A') (A")
                 (A') (A') (A") (A') (A') (A') (A") (A") (A') (A")
                 (A') (A') (A') (A') (A") (A') (A') (A") (A') (A')
                 (A") (A") (A') (A") (A') (A') (A") (A') (A") (A")
                 (A') (A') (A") (A') (A') (A') (A') (A") (A') (A')
                 (A") (A') (A') (A') (A') (A') (A') (A') (A') (A')
                 (A") (A") (A') (A') (A') (A') (A") (A') (A") (A')
                 (A') (A") (A') (A') (A') (A') (A") (A") (A") (A')
                 (A') (A") (A') (A") (A') (A") (A') (A") (A") (A")
                 (A') (A') (A') (A") (A') (A') (A') (A") (A') (A')
                 (A') (A') (A') (A') (A") (A') (A') (A") (A") (A')
                 (A") (A") (A') (A') (A") (A') (A') (A') (A') (A')
                 (A') (A') (A') (A') (A') (A') (A') (A') (A') (A')
                 (A') (A') (A') (A') (A') (A') (A') (A') (A') (A")
                 (A") (A") (A") (A") (A') (A') (A') (A') (A') (A')
                 (A') (A') (A') (A') (A') (A') (A') (A') (A')
 The electronic state is 1-A'.
 Alpha  occ. eigenvalues -- -102.55043-102.53338-102.52471-102.52181-102.50214
 Alpha  occ. eigenvalues --  -10.44034 -10.43007 -10.42793 -10.42376 -10.41882
 Alpha  occ. eigenvalues --  -10.31696  -9.72877  -9.71972  -9.69895  -9.69325
 Alpha  occ. eigenvalues --   -9.66496  -7.45843  -7.44932  -7.43922  -7.43790
 Alpha  occ. eigenvalues --   -7.43013  -7.42900  -7.42874  -7.41781  -7.41211
 Alpha  occ. eigenvalues --   -7.41193  -7.40958  -7.40723  -7.38958  -7.38380
 Alpha  occ. eigenvalues --   -7.38347  -1.15270  -1.08669  -1.07084  -0.84022
 Alpha  occ. eigenvalues --   -0.81635  -0.73374  -0.65979  -0.65140  -0.59880
 Alpha  occ. eigenvalues --   -0.57100  -0.54336  -0.50056  -0.48062  -0.47565
 Alpha  occ. eigenvalues --   -0.45732  -0.44351  -0.42224  -0.38100  -0.34728
 Alpha  occ. eigenvalues --   -0.28796  -0.27075  -0.26642  -0.23828  -0.22974
 Alpha  occ. eigenvalues --   -0.20005  -0.16995  -0.15659  -0.10916  -0.06680
 Alpha  occ. eigenvalues --   -0.04430
 Alpha virt. eigenvalues --    0.11540   0.12883   0.13894   0.14362   0.14793
 Alpha virt. eigenvalues --    0.15735   0.15789   0.16304   0.17448   0.18347
 Alpha virt. eigenvalues --    0.18862   0.19570   0.20316   0.20426   0.20640
 Alpha virt. eigenvalues --    0.21524   0.22482   0.22754   0.23490   0.24003
 Alpha virt. eigenvalues --    0.24152   0.24268   0.26047   0.26701   0.27701
 Alpha virt. eigenvalues --    0.28152   0.28267   0.28428   0.29060   0.29191
 Alpha virt. eigenvalues --    0.30729   0.31914   0.32396   0.32923   0.33041
 Alpha virt. eigenvalues --    0.33533   0.34388   0.34460   0.35158   0.36730
 Alpha virt. eigenvalues --    0.36822   0.37283   0.38210   0.38945   0.39242
 Alpha virt. eigenvalues --    0.40220   0.40787   0.41086   0.43030   0.43753
 Alpha virt. eigenvalues --    0.44760   0.45808   0.46448   0.48635   0.52708
 Alpha virt. eigenvalues --    0.54388   0.57533   0.58086   0.58768   0.60624
 Alpha virt. eigenvalues --    0.61242   0.62405   0.63647   0.64433   0.65545
 Alpha virt. eigenvalues --    0.68308   0.70258   0.73731   0.74767   0.75781
 Alpha virt. eigenvalues --    0.76620   0.77973   0.78362   0.79017   0.80012
 Alpha virt. eigenvalues --    0.81038   0.81171   0.81710   0.83438   0.85162
 Alpha virt. eigenvalues --    0.85423   0.87041   0.87603   0.88265   0.88921
 Alpha virt. eigenvalues --    0.90924   0.93482   0.96358   0.97645   0.99089
 Alpha virt. eigenvalues --    1.00063   1.02463   1.03910   1.06297   1.06835
 Alpha virt. eigenvalues --    1.07320   1.09210   1.09765   1.09916   1.11245
 Alpha virt. eigenvalues --    1.13467   1.14049   1.15659   1.16580   1.17713
 Alpha virt. eigenvalues --    1.21012   1.22279   1.23224   1.25645   1.27927
 Alpha virt. eigenvalues --    1.29556   1.31013   1.33618   1.34677   1.36779
 Alpha virt. eigenvalues --    1.42716   1.43235   1.47696   1.49010   1.50325
 Alpha virt. eigenvalues --    1.50436   1.52748   1.55135   1.56382   1.58851
 Alpha virt. eigenvalues --    1.66781   1.67894   1.70978   1.74382   1.77161
 Alpha virt. eigenvalues --    1.84900   1.90944   1.92347   1.95432   2.02317
 Alpha virt. eigenvalues --    2.07999   2.09861   2.12829   2.13546   2.17351
 Alpha virt. eigenvalues --    2.22490   2.31415   2.31669   2.35559   2.36013
 Alpha virt. eigenvalues --    2.36535   2.41937   2.42970   2.44724   2.46169
 Alpha virt. eigenvalues --    2.46200   2.47435   2.50412   2.54436   2.54548
 Alpha virt. eigenvalues --    2.59457   2.60217   2.61578   2.63466   2.66362
 Alpha virt. eigenvalues --    2.71270   2.75062   2.77787   2.82635   2.87167
 Alpha virt. eigenvalues --    2.94571   3.01887   3.04696   3.08501   3.11339
 Alpha virt. eigenvalues --    3.14024   3.16067   3.19733   3.24424   3.30926
 Alpha virt. eigenvalues --    3.35379   3.37328   3.42029   3.52150   3.64553
 Alpha virt. eigenvalues --    3.66987   3.77454   3.91727   4.00065   4.08244
 Alpha virt. eigenvalues --    4.35943   4.49793   4.98403  10.10488  10.13357
 Alpha virt. eigenvalues --   10.59404  10.65746  10.68115  23.94350  24.19208
 Alpha virt. eigenvalues --   24.33382  24.51526  24.65163  24.72901  25.99211
 Alpha virt. eigenvalues --   26.06695  26.08898  26.10049  26.22752  26.36287
 Alpha virt. eigenvalues --   26.42854  26.46426  26.75218  26.86504  27.03600
 Alpha virt. eigenvalues --   27.23607  28.84126  29.39381  29.82690 216.21032
 Alpha virt. eigenvalues --  216.23877 216.98217 217.07525 217.12610
          Condensed to atoms (all electrons):
               1          2          3          4          5          6
     1  C   48.064901   9.680072  -2.856182   3.675437 -12.045035 -39.173830
     2  C    9.680072  35.490004  -4.914076 -12.612927  -2.301324 -18.682970
     3  C   -2.856182  -4.914076  35.376495 -26.330202  -9.430789  14.856291
     4  C    3.675437 -12.612927 -26.330202  56.405535  10.485467 -21.530726
     5  C  -12.045035  -2.301324  -9.430789  10.485467  31.548749  -8.616104
     6  C  -39.173830 -18.682970  14.856291 -21.530726  -8.616104  81.697647
     7  Cl  -1.744883   0.005066   0.146553  -0.647592   1.782093   0.541284
     8  Cl  -0.406106   0.130216  -0.729851  -0.246094   0.124297  -2.819184
     9  Cl  -0.500540  -1.047490  -2.772643   4.221456   0.337123  -0.985423
    10  Cl  -1.335427   1.648478   2.389982  -8.543393   0.322191   2.753299
    11  Cl   4.419139  -1.040731  -0.503194   2.473515  -5.588569  -3.074627
               7          8          9         10         11
     1  C   -1.744883  -0.406106  -0.500540  -1.335427   4.419139
     2  C    0.005066   0.130216  -1.047490   1.648478  -1.040731
     3  C    0.146553  -0.729851  -2.772643   2.389982  -0.503194
     4  C   -0.647592  -0.246094   4.221456  -8.543393   2.473515
     5  C    1.782093   0.124297   0.337123   0.322191  -5.588569
     6  C    0.541284  -2.819184  -0.985423   2.753299  -3.074627
     7  Cl  17.720246  -0.266501  -0.018012   0.170930  -0.908872
     8  Cl  -0.266501  20.650327   0.059897  -0.079393   0.044334
     9  Cl  -0.018012   0.059897  18.628600  -1.412132   0.245398
    10  Cl   0.170930  -0.079393  -1.412132  23.485140  -2.496370
    11  Cl  -0.908872   0.044334   0.245398  -2.496370  23.229714
 Mulliken charges:
               1
     1  C   -1.777545
     2  C   -0.354316
     3  C    0.767617
     4  C   -1.350476
     5  C   -0.618099
     6  C    1.034344
     7  Cl   0.219688
     8  Cl   0.538061
     9  Cl   0.243767
    10  Cl   0.096696
    11  Cl   0.200264
 Sum of Mulliken charges =  -1.00000
 Mulliken charges with hydrogens summed into heavy atoms:
               1
     1  C   -1.777545
     2  C   -0.354316
     3  C    0.767617
     4  C   -1.350476
     5  C   -0.618099
     6  C    1.034344
     7  Cl   0.219688
     8  Cl   0.538061
     9  Cl   0.243767
    10  Cl   0.096696
    11  Cl   0.200264
 Electronic spatial extent (au):  <R**2>=           2750.2767
 Charge=             -1.0000 electrons
 Dipole moment (field-independent basis, Debye):
    X=              3.9843    Y=             -3.2699    Z=              0.0000  Tot=              5.1543
 Quadrupole moment (field-independent basis, Debye-Ang):
   XX=           -117.4357   YY=           -123.1547   ZZ=            -98.5949
   XY=              5.2033   XZ=              0.0000   YZ=              0.0000
 Traceless Quadrupole moment (field-independent basis, Debye-Ang):
   XX=             -4.3739   YY=            -10.0930   ZZ=             14.4669
   XY=              5.2033   XZ=              0.0000   YZ=              0.0000
 Octapole moment (field-independent basis, Debye-Ang**2):
  XXX=             32.2897  YYY=            -27.1081  ZZZ=              0.0000  XYY=             15.1026
  XXY=            -19.7939  XXZ=              0.0000  XZZ=              3.9449  YZZ=             -4.9308
  YYZ=              0.0000  XYZ=              0.0000
 Hexadecapole moment (field-independent basis, Debye-Ang**3):
 XXXX=          -1486.3003 YYYY=          -2373.5704 ZZZZ=           -126.6010 XXXY=            -72.7713
 XXXZ=              0.0000 YYYX=           -101.2209 YYYZ=              0.0000 ZZZX=              0.0000
 ZZZY=              0.0000 XXYY=           -631.8693 XXZZ=           -258.3429 YYZZ=           -402.8124
 XXYZ=              0.0000 YYXZ=              0.0000 ZZXY=            -32.0164
 N-N= 1.214849911344D+03 E-N=-8.454207575544D+03  KE= 2.535754859579D+03
 Symmetry A'   KE= 2.299173563009D+03
 Symmetry A"   KE= 2.365812965703D+02
 Calling FoFJK, ICntrl=      2127 FMM=F ISym2X=1 I1Cent= 0 IOpClX= 0 NMat=1 NMatS=1 NMatT=0.
 ***** Axes restored to original set *****
 -------------------------------------------------------------------
 Center     Atomic                   Forces (Hartrees/Bohr)
 Number     Number              X              Y              Z
 -------------------------------------------------------------------
      1        6          -1.726269329   -0.968072723   -0.000000000
      2        6          -0.034018456   -0.107241444   -0.000000000
      3        6           0.119761038    0.059389132   -0.000000000
      4        6           1.719898148    0.907885110   -0.000000000
      5        6           1.735934504   -0.910999251   -0.000000000
      6        6           0.010940490   -0.034460124   -0.000000000
      7       17          -0.003671400    0.004785046   -0.000000000
      8       17           1.845584445    1.061299074   -0.000000000
      9       17          -0.003930431   -0.009759092   -0.000000000
     10       17          -1.834864431   -1.055846250   -0.000000000
     11       17          -1.829364578    1.053020521   -0.000000000
 -------------------------------------------------------------------
 Cartesian Forces:  Max     1.845584445 RMS     0.871159960

 GradGradGradGradGradGradGradGradGradGradGradGradGradGradGradGradGradGrad
 Berny optimization.
 FormGI is forming the generalized inverse of G from B-inverse, IUseBI=4.
 Internal  Forces:  Max     2.128918941 RMS     0.536555390
 Search for a local minimum.
 Step number   1 out of a maximum of   57
 All quantities printed in internal units (Hartrees-Bohrs-Radians)
 Mixed Optimization -- RFO/linear search
 Second derivative matrix not updated -- first step.
 ITU=  0
     Eigenvalues ---    0.02237   0.02241   0.02245   0.02249   0.02253
     Eigenvalues ---    0.02262   0.02262   0.02262   0.25000   0.25000
     Eigenvalues ---    0.25000   0.25000   0.25000   0.25000   0.25000
     Eigenvalues ---    0.25000   0.30398   0.30398   0.43642   0.44057
     Eigenvalues ---    0.47358   0.47716   0.47868   0.47868  12.00734
     Eigenvalues ---   12.00880  12.00898
 RFO step:  Lambda=-1.07195703D+00 EMin= 2.23696144D-02
 Linear search not attempted -- first point.
 Maximum step size (   0.300) exceeded in Quadratic search.
    -- Step size scaled by   0.914
 Iteration  1 RMS(Cart)=  0.05910663 RMS(Int)=  0.00036550
 Iteration  2 RMS(Cart)=  0.00047027 RMS(Int)=  0.00007426
 Iteration  3 RMS(Cart)=  0.00000015 RMS(Int)=  0.00007426
 ClnCor:  largest displacement from symmetrization is 6.36D-14 for atom    11.
 Variable       Old X    -DE/DX   Delta X   Delta X   Delta X     New X
                                 (Linear)    (Quad)   (Total)
    R1        2.62628   0.07481   0.00000   0.04374   0.04362   2.66991
    R2        2.62080   0.07189   0.00000   0.04247   0.04242   2.66323
    R3        2.04665   2.12892   0.00000   0.14884   0.14884   2.19549
    R4        2.62080  -0.02225   0.00000  -0.01371  -0.01377   2.60703
    R5        2.62080   0.08629   0.00000   0.05081   0.05086   2.67166
    R6        3.30877   0.00976   0.00000   0.00649   0.00649   3.31526
    R7        2.62629   0.13076   0.00000   0.07789   0.07801   2.70430
    R8        2.04662   2.11691   0.00000   0.14798   0.14798   2.19461
    R9        2.62080   0.08173   0.00000   0.04878   0.04884   2.66964
   R10        2.04663   2.11074   0.00000   0.14755   0.14755   2.19418
   R11        3.30877   0.00479   0.00000   0.00318   0.00318   3.31195
    A1        2.08051  -0.04679   0.00000  -0.03281  -0.03297   2.04754
    A2        2.10001   0.00741   0.00000   0.00535   0.00543   2.10544
    A3        2.10267   0.03938   0.00000   0.02746   0.02754   2.13021
    A4        2.08051   0.01579   0.00000   0.00909   0.00883   2.08934
    A5        2.12216   0.05802   0.00000   0.03947   0.03947   2.16163
    A6        2.08053  -0.02252   0.00000  -0.01525  -0.01525   2.06528
    A7        2.08049  -0.03550   0.00000  -0.02422  -0.02422   2.05627
    A8        2.08051  -0.04614   0.00000  -0.03127  -0.03108   2.04943
    A9        2.10263   0.03841   0.00000   0.02625   0.02615   2.12879
   A10        2.10004   0.00773   0.00000   0.00502   0.00493   2.10497
   A11        2.08051  -0.03457   0.00000  -0.02249  -0.02229   2.05823
   A12        2.10004   0.00228   0.00000   0.00086   0.00076   2.10080
   A13        2.10263   0.03230   0.00000   0.02163   0.02153   2.12416
   A14        2.12216   0.05370   0.00000   0.03801   0.03804   2.16021
   A15        2.08053  -0.02076   0.00000  -0.01480  -0.01481   2.06572
   A16        2.08049  -0.03294   0.00000  -0.02322  -0.02323   2.05726
    D1        0.00000  -0.00000   0.00000  -0.00000   0.00000   0.00000
    D2        3.14159  -0.00000   0.00000  -0.00000   0.00000   3.14159
    D3        0.00000   0.00000   0.00000   0.00000   0.00000   0.00000
    D4        3.14159   0.00000   0.00000   0.00000   0.00000   3.14159
    D5        3.14159   0.00000   0.00000   0.00000   0.00000   3.14159
    D6        0.00000   0.00000   0.00000   0.00000   0.00000   0.00000
    D7        0.00000  -0.00000   0.00000  -0.00000   0.00000   0.00000
    D8        3.14159   0.00000   0.00000   0.00000   0.00000   3.14159
    D9        0.00000  -0.00000   0.00000  -0.00000   0.00000   0.00000
   D10        3.14159   0.00000   0.00000   0.00000   0.00000   3.14159
   D11        3.14159  -0.00000   0.00000  -0.00000   0.00000   3.14159
   D12        0.00000  -0.00000   0.00000  -0.00000   0.00000   0.00000
   D13        0.00000   0.00000   0.00000   0.00000   0.00000   0.00000
   D14        3.14159   0.00000   0.00000   0.00000   0.00000   3.14159
   D15        3.14159   0.00000   0.00000   0.00000   0.00000   3.14159
   D16        0.00000   0.00000   0.00000  -0.00000   0.00000   0.00000
   D17        0.00000  -0.00000   0.00000  -0.00000   0.00000   0.00000
   D18        3.14159  -0.00000   0.00000  -0.00000   0.00000   3.14159
   D19        3.14159  -0.00000   0.00000  -0.00000   0.00000   3.14159
   D20        0.00000  -0.00000   0.00000   0.00000   0.00000   0.00000
         Item               Value     Threshold  Converged?
 Maximum Force            2.128919     0.000450     NO 
 RMS     Force            0.536555     0.000300     NO 
 Maximum Displacement     0.220181     0.001800     NO 
 RMS     Displacement     0.059091     0.001200     NO 
 Predicted change in Energy=-5.802897D-01
 GradGradGradGradGradGradGradGradGradGradGradGradGradGradGradGradGradGrad

                          Input orientation:                          
 ---------------------------------------------------------------------
 Center     Atomic      Atomic             Coordinates (Angstroms)
 Number     Number       Type             X           Y           Z
 ---------------------------------------------------------------------
      1          6           0        1.251891    0.702366    0.000000
      2          6           0        1.226632   -0.710261    0.000000
      3          6           0        0.016377   -1.372478    0.000000
      4          6           0       -1.238101   -0.720509    0.000000
      5          6           0       -1.237150    0.710545    0.000000
      6          6           0        0.011480    1.371369    0.000000
      7         17           0        0.010954    3.123978    0.000000
      8         17           0        2.261990    1.276375    0.000000
      9         17           0        0.027220   -3.126803    0.000000
     10         17           0       -2.238042   -1.311119    0.000000
     11         17           0       -2.238570    1.298197    0.000000
 ---------------------------------------------------------------------
                    Distance matrix (angstroms):
                    1          2          3          4          5
     1  C    0.000000
     2  C    1.412854   0.000000
     3  C    2.414845   1.379583   0.000000
     4  C    2.867862   2.464755   1.413782   0.000000
     5  C    2.489054   2.844102   2.431114   1.431055   0.000000
     6  C    1.409320   2.410348   2.743851   2.436679   1.412715
     7  Cl   2.721052   4.022345   4.496459   4.042304   2.717061
     8  Cl   1.161803   2.240243   3.472636   4.029663   3.544593
     9  Cl   4.020243   2.697826   1.754358   2.718692   4.040281
    10  Cl   4.029113   3.516390   2.255254   1.161336   2.255861
    11  Cl   3.540950   4.005188   3.495325   2.253023   1.161110
                    6          7          8          9         10
     6  C    0.000000
     7  Cl   1.752609   0.000000
     8  Cl   2.252514   2.912180   0.000000
     9  Cl   4.498199   6.250802   4.937831   0.000000
    10  Cl   3.500870   4.972732   5.190897   2.903123   0.000000
    11  Cl   2.251239   2.897211   4.500612   4.971361   2.609316
                   11
    11  Cl   0.000000
 Stoichiometry    C6Cl5(1-)
 Framework group  CS[SG(C6Cl5)]
 Deg. of freedom    19
 Full point group                 CS      NOp   2
 Largest Abelian subgroup         CS      NOp   2
 Largest concise Abelian subgroup C1      NOp   1
                         Standard orientation:                         
 ---------------------------------------------------------------------
 Center     Atomic      Atomic             Coordinates (Angstroms)
 Number     Number       Type             X           Y           Z
 ---------------------------------------------------------------------
      1          6           0       -1.230047    1.088762   -0.000000
      2          6           0        0.008287    1.768972    0.000000
      3          6           0        1.184453    1.047943    0.000000
      4          6           0        1.242241   -0.364657    0.000000
      5          6           0       -0.000000   -1.075118   -0.000000
      6          6           0       -1.194031   -0.320098   -0.000000
      7         17           0       -2.714560   -1.191664   -0.000000
      8         17           0       -2.230187    1.679951   -0.000000
      9         17           0        2.701343    1.929315    0.000000
     10         17           0        2.251738   -0.938781    0.000000
     11         17           0       -0.012181   -2.236164   -0.000000
 ---------------------------------------------------------------------
 Rotational constants (GHZ):           0.9268712           0.5290300           0.3367967
 Standard basis: 6-311++G(d,p) (5D, 7F)
 There are   217 symmetry adapted cartesian basis functions of A'  symmetry.
 There are    76 symmetry adapted cartesian basis functions of A"  symmetry.
 There are   206 symmetry adapted basis functions of A'  symmetry.
 There are    76 symmetry adapted basis functions of A"  symmetry.
   282 basis functions,   481 primitive gaussians,   293 cartesian basis functions
    61 alpha electrons       61 beta electrons
       nuclear repulsion energy      1179.6345999595 Hartrees.
 NAtoms=   11 NActive=   11 NUniq=   11 SFac= 1.00D+00 NAtFMM=   60 NAOKFM=F Big=F
 Integral buffers will be    131072 words long.
 Raffenetti 2 integral format.
 Two-electron integral symmetry is turned on.
 One-electron integrals computed using PRISM.
 NBasis=   282 RedAO= T EigKep=  1.41D-06  NBF=   206    76
 NBsUse=   280 1.00D-06 EigRej=  4.47D-07 NBFU=   204    76
 Initial guess from the checkpoint file:  "frequency_chks/Hexachlorobenzene_anion_product_Freq.chk"
 B after Tr=    -0.000000   -0.000000    0.000000
         Rot=    0.865205    0.000000    0.000000    0.501418 Ang=  60.19 deg.
 Initial guess orbital symmetries:
       Occupied  (A') (A') (A') (A') (A') (A') (A') (A') (A') (A')
                 (A') (A') (A') (A') (A') (A') (A') (A') (A") (A')
                 (A") (A') (A') (A') (A") (A') (A") (A') (A') (A")
                 (A') (A') (A') (A') (A') (A') (A') (A') (A') (A')
                 (A') (A") (A') (A') (A") (A') (A") (A') (A') (A')
                 (A") (A") (A') (A') (A') (A') (A") (A') (A") (A')
                 (A")
       Virtual   (A') (A') (A') (A") (A') (A") (A') (A') (A") (A")
                 (A') (A') (A') (A") (A') (A") (A') (A') (A") (A')
                 (A") (A') (A') (A') (A") (A') (A") (A') (A') (A")
                 (A') (A") (A') (A") (A') (A') (A") (A') (A') (A')
                 (A') (A') (A') (A') (A') (A') (A') (A') (A') (A')
                 (A') (A') (A') (A') (A") (A') (A') (A") (A") (A')
                 (A') (A") (A') (A') (A") (A') (A") (A') (A') (A")
                 (A') (A') (A") (A') (A') (A') (A") (A") (A') (A")
                 (A') (A') (A') (A') (A") (A') (A') (A") (A') (A')
                 (A") (A") (A') (A") (A') (A') (A") (A') (A") (A")
                 (A') (A') (A") (A') (A') (A') (A') (A") (A') (A')
                 (A") (A') (A') (A') (A') (A') (A') (A') (A') (A')
                 (A") (A") (A') (A') (A') (A') (A") (A') (A") (A')
                 (A') (A") (A') (A') (A') (A') (A") (A") (A") (A')
                 (A') (A") (A') (A") (A') (A") (A') (A") (A") (A")
                 (A') (A') (A') (A") (A') (A') (A') (A") (A') (A')
                 (A') (A') (A') (A') (A") (A') (A') (A") (A") (A')
                 (A") (A") (A') (A') (A") (A') (A') (A') (A') (A')
                 (A') (A') (A') (A') (A') (A') (A') (A') (A') (A')
                 (A') (A') (A') (A') (A') (A') (A') (A') (A') (A")
                 (A") (A") (A") (A") (A') (A') (A') (A') (A') (A')
                 (A') (A') (A') (A') (A') (A') (A') (A') (A')
 ExpMin= 4.38D-02 ExpMax= 1.06D+05 ExpMxC= 3.62D+03 IAcc=3 IRadAn=         5 AccDes= 0.00D+00
 Harris functional with IExCor= 1009 and IRadAn=       5 diagonalized for initial guess.
 HarFok:  IExCor= 1009 AccDes= 0.00D+00 IRadAn=         5 IDoV= 1 UseB2=F ITyADJ=14
 ICtDFT=  3500011 ScaDFX=  1.000000  1.000000  1.000000  1.000000
 FoFCou: FMM=F IPFlag=           0 FMFlag=      100000 FMFlg1=           0
         NFxFlg=           0 DoJE=T BraDBF=F KetDBF=T FulRan=T
         wScrn=  0.000000 ICntrl=       500 IOpCl=  0 I1Cent=   200000004 NGrid=           0
         NMat0=    1 NMatS0=      1 NMatT0=    0 NMatD0=    1 NMtDS0=    0 NMtDT0=    0
 Petite list used in FoFCou.
 Requested convergence on RMS density matrix=1.00D-08 within 128 cycles.
 Requested convergence on MAX density matrix=1.00D-06.
 Requested convergence on             energy=1.00D-06.
 No special actions if energy rises.
 SCF Done:  E(RM062X) =  -2528.20049521     A.U. after   18 cycles
            NFock= 18  Conv=0.52D-08     -V/T= 1.9983
 Calling FoFJK, ICntrl=      2127 FMM=F ISym2X=1 I1Cent= 0 IOpClX= 0 NMat=1 NMatS=1 NMatT=0.
 ***** Axes restored to original set *****
 -------------------------------------------------------------------
 Center     Atomic                   Forces (Hartrees/Bohr)
 Number     Number              X              Y              Z
 -------------------------------------------------------------------
      1        6          -1.185533055   -0.646958810   -0.000000000
      2        6          -0.020984814   -0.063926802   -0.000000000
      3        6           0.068967304    0.057798495    0.000000000
      4        6           1.167818843    0.631774214    0.000000000
      5        6           1.185737846   -0.635688937    0.000000000
      6        6           0.008494362   -0.036694215   -0.000000000
      7       17          -0.003109946    0.007925816    0.000000000
      8       17           1.244970772    0.700829381    0.000000000
      9       17          -0.003930581   -0.013317812   -0.000000000
     10       17          -1.230115808   -0.714199588   -0.000000000
     11       17          -1.232314923    0.712458257    0.000000000
 -------------------------------------------------------------------
 Cartesian Forces:  Max     1.244970772 RMS     0.590375931

 GradGradGradGradGradGradGradGradGradGradGradGradGradGradGradGradGradGrad
 Berny optimization.
 Using GEDIIS/GDIIS optimizer.
 FormGI is forming the generalized inverse of G from B-inverse, IUseBI=4.
 Internal  Forces:  Max     1.428664063 RMS     0.360503326
 Search for a local minimum.
 Step number   2 out of a maximum of   57
 All quantities printed in internal units (Hartrees-Bohrs-Radians)
 Mixed Optimization -- RFO/linear search
 Update second derivatives using D2CorX and points    1    2
 DE= -8.07D-01 DEPred=-5.80D-01 R= 1.39D+00
 TightC=F SS=  1.41D+00  RLast= 3.00D-01 DXNew= 5.0454D-01 9.0000D-01
 Trust test= 1.39D+00 RLast= 3.00D-01 DXMaxT set to 5.05D-01
 ITU=  1  0
 Use linear search instead of GDIIS.
 Linear search step of   0.600 exceeds DXMaxT=   0.505 but not scaled.
 Quartic linear search produced a step of  2.00000.
 Iteration  1 RMS(Cart)=  0.09608533 RMS(Int)=  0.02429968
 Iteration  2 RMS(Cart)=  0.02397131 RMS(Int)=  0.00042069
 Iteration  3 RMS(Cart)=  0.00001954 RMS(Int)=  0.00042051
 Iteration  4 RMS(Cart)=  0.00000000 RMS(Int)=  0.00042051
 ClnCor:  largest displacement from symmetrization is 1.43D-09 for atom     2.
 Variable       Old X    -DE/DX   Delta X   Delta X   Delta X     New X
                                 (Linear)    (Quad)   (Total)
    R1        2.66991   0.03911   0.08725   0.00000   0.08661   2.75652
    R2        2.66323   0.03262   0.08485   0.00000   0.08460   2.74783
    R3        2.19549   1.42866   0.29768   0.00000   0.29768   2.49317
    R4        2.60703  -0.01792  -0.02754   0.00000  -0.02787   2.57916
    R5        2.67166   0.04280   0.10172   0.00000   0.10193   2.77360
    R6        3.31526   0.01329   0.01297   0.00000   0.01297   3.32823
    R7        2.70430   0.06301   0.15601   0.00000   0.15665   2.86095
    R8        2.19461   1.42238   0.29597   0.00000   0.29597   2.49058
    R9        2.66964   0.03824   0.09769   0.00000   0.09800   2.76764
   R10        2.19418   1.42342   0.29511   0.00000   0.29511   2.48929
   R11        3.31195   0.00793   0.00636   0.00000   0.00636   3.31831
    A1        2.04754  -0.02693  -0.06594   0.00000  -0.06688   1.98066
    A2        2.10544   0.00712   0.01086   0.00000   0.01133   2.11676
    A3        2.13021   0.01981   0.05508   0.00000   0.05555   2.18576
    A4        2.08934   0.00220   0.01766   0.00000   0.01623   2.10557
    A5        2.16163   0.03852   0.07893   0.00000   0.07891   2.24054
    A6        2.06528  -0.01261  -0.03049   0.00000  -0.03048   2.03480
    A7        2.05627  -0.02591  -0.04844   0.00000  -0.04843   2.00784
    A8        2.04943  -0.02786  -0.06217   0.00000  -0.06108   1.98834
    A9        2.12879   0.02561   0.05231   0.00000   0.05177   2.18055
   A10        2.10497   0.00225   0.00986   0.00000   0.00932   2.11429
   A11        2.05823  -0.01974  -0.04457   0.00000  -0.04341   2.01482
   A12        2.10080  -0.00024   0.00152   0.00000   0.00094   2.10174
   A13        2.12416   0.01998   0.04305   0.00000   0.04247   2.16663
   A14        2.16021   0.03380   0.07609   0.00000   0.07623   2.23644
   A15        2.06572  -0.01175  -0.02962   0.00000  -0.02969   2.03602
   A16        2.05726  -0.02205  -0.04647   0.00000  -0.04654   2.01072
    D1       -0.00000   0.00000   0.00000   0.00000   0.00000   0.00000
    D2        3.14159  -0.00000   0.00000   0.00000   0.00000   3.14159
    D3        0.00000   0.00000   0.00000   0.00000   0.00000   0.00000
    D4        3.14159  -0.00000   0.00000   0.00000   0.00000   3.14159
    D5        3.14159   0.00000   0.00000   0.00000   0.00000   3.14159
    D6        0.00000   0.00000   0.00000   0.00000   0.00000   0.00000
    D7        0.00000   0.00000   0.00000   0.00000   0.00000   0.00000
    D8        3.14159   0.00000   0.00000   0.00000   0.00000   3.14159
    D9        0.00000  -0.00000   0.00000   0.00000   0.00000   0.00000
   D10        3.14159   0.00000   0.00000   0.00000   0.00000   3.14159
   D11        3.14159  -0.00000   0.00000   0.00000   0.00000   3.14159
   D12        0.00000  -0.00000   0.00000   0.00000   0.00000   0.00000
   D13        0.00000   0.00000   0.00000   0.00000  -0.00000   0.00000
   D14        3.14159   0.00000   0.00000   0.00000   0.00000   3.14159
   D15        3.14159  -0.00000   0.00000   0.00000   0.00000   3.14159
   D16       -0.00000  -0.00000   0.00000   0.00000   0.00000   0.00000
   D17       -0.00000   0.00000   0.00000   0.00000   0.00000   0.00000
   D18        3.14159   0.00000   0.00000   0.00000   0.00000   3.14159
   D19        3.14159  -0.00000   0.00000   0.00000   0.00000   3.14159
   D20       -0.00000  -0.00000   0.00000   0.00000   0.00000   0.00000
         Item               Value     Threshold  Converged?
 Maximum Force            1.428664     0.000450     NO 
 RMS     Force            0.360503     0.000300     NO 
 Maximum Displacement     0.445308     0.001800     NO 
 RMS     Displacement     0.118065     0.001200     NO 
 Predicted change in Energy=-6.547287D-01
 GradGradGradGradGradGradGradGradGradGradGradGradGradGradGradGradGradGrad

                          Input orientation:                          
 ---------------------------------------------------------------------
 Center     Atomic      Atomic             Coordinates (Angstroms)
 Number     Number       Type             X           Y           Z
 ---------------------------------------------------------------------
      1          6           0        1.335259    0.718514    0.000000
      2          6           0        1.257668   -0.738107   -0.000000
      3          6           0        0.048052   -1.370245   -0.000000
      4          6           0       -1.292414   -0.772446   -0.000000
      5          6           0       -1.289465    0.741501    0.000000
      6          6           0        0.034313    1.368067    0.000000
      7         17           0        0.030546    3.124038    0.000000
      8         17           0        2.497637    1.342623    0.000000
      9         17           0        0.078962   -3.131196   -0.000000
     10         17           0       -2.421787   -1.451802   -0.000000
     11         17           0       -2.424089    1.410712    0.000000
 ---------------------------------------------------------------------
                    Distance matrix (angstroms):
                    1          2          3          4          5
     1  C    0.000000
     2  C    1.458686   0.000000
     3  C    2.453531   1.364833   0.000000
     4  C    3.021196   2.550313   1.467723   0.000000
     5  C    2.624825   2.945696   2.499684   1.513950   0.000000
     6  C    1.454091   2.435686   2.738346   2.518333   1.464573
     7  Cl   2.736572   4.052406   4.494317   4.114950   2.723768
     8  Cl   1.319331   2.422181   3.655149   4.340276   3.834512
     9  Cl   4.049512   2.667625   1.761222   2.728437   4.107355
    10  Cl   4.338855   3.748033   2.471185   1.317956   2.468346
    11  Cl   3.822543   4.262952   3.720914   2.459038   1.317275
                    6          7          8          9         10
     6  C    0.000000
     7  Cl   1.755975   0.000000
     8  Cl   2.463455   3.043021   0.000000
     9  Cl   4.499484   6.255421   5.085769   0.000000
    10  Cl   3.739531   5.191555   5.657697   3.012326   0.000000
    11  Cl   2.458772   2.993446   4.922196   5.185960   2.862515
                   11
    11  Cl   0.000000
 Stoichiometry    C6Cl5(1-)
 Framework group  CS[SG(C6Cl5)]
 Deg. of freedom    19
 Full point group                 CS      NOp   2
 Largest Abelian subgroup         CS      NOp   2
 Largest concise Abelian subgroup C1      NOp   1
                         Standard orientation:                         
 ---------------------------------------------------------------------
 Center     Atomic      Atomic             Coordinates (Angstroms)
 Number     Number       Type             X           Y           Z
 ---------------------------------------------------------------------
      1          6           0       -1.286685    1.158364    0.000000
      2          6           0        0.015245    1.816195   -0.000000
      3          6           0        1.165651    1.081800   -0.000000
      4          6           0        1.314491   -0.378357   -0.000000
      5          6           0       -0.000000   -1.129462    0.000000
      6          6           0       -1.202405   -0.293282    0.000000
      7         17           0       -2.723456   -1.170694    0.000000
      8         17           0       -2.406612    1.855787    0.000000
      9         17           0        2.677509    1.985232   -0.000000
     10         17           0        2.465902   -1.019653   -0.000000
     11         17           0       -0.015566   -2.446645    0.000000
 ---------------------------------------------------------------------
 Rotational constants (GHZ):           0.7987611           0.5021478           0.3083199
 Standard basis: 6-311++G(d,p) (5D, 7F)
 There are   217 symmetry adapted cartesian basis functions of A'  symmetry.
 There are    76 symmetry adapted cartesian basis functions of A"  symmetry.
 There are   206 symmetry adapted basis functions of A'  symmetry.
 There are    76 symmetry adapted basis functions of A"  symmetry.
   282 basis functions,   481 primitive gaussians,   293 cartesian basis functions
    61 alpha electrons       61 beta electrons
       nuclear repulsion energy      1117.3726573475 Hartrees.
 NAtoms=   11 NActive=   11 NUniq=   11 SFac= 1.00D+00 NAtFMM=   60 NAOKFM=F Big=F
 Integral buffers will be    131072 words long.
 Raffenetti 2 integral format.
 Two-electron integral symmetry is turned on.
 One-electron integrals computed using PRISM.
 NBasis=   282 RedAO= T EigKep=  1.99D-06  NBF=   206    76
 NBsUse=   280 1.00D-06 EigRej=  6.78D-07 NBFU=   204    76
 Initial guess from the checkpoint file:  "frequency_chks/Hexachlorobenzene_anion_product_Freq.chk"
 B after Tr=     0.000000    0.000000    0.000000
         Rot=    1.000000    0.000000   -0.000000   -0.000525 Ang=  -0.06 deg.
 Initial guess orbital symmetries:
       Occupied  (A') (A') (A') (A') (A') (A') (A') (A') (A') (A')
                 (A') (A') (A') (A') (A') (A') (A') (A') (A") (A')
                 (A") (A') (A') (A') (A") (A') (A") (A') (A') (A")
                 (A') (A') (A') (A') (A') (A') (A') (A') (A') (A')
                 (A') (A') (A") (A') (A') (A") (A') (A") (A') (A')
                 (A") (A") (A') (A') (A') (A') (A") (A') (A") (A')
                 (A")
       Virtual   (A') (A') (A') (A") (A') (A") (A') (A') (A") (A")
                 (A') (A') (A') (A") (A') (A") (A') (A') (A") (A')
                 (A") (A') (A') (A') (A") (A') (A") (A') (A") (A')
                 (A') (A") (A') (A") (A') (A') (A") (A') (A') (A')
                 (A') (A') (A') (A') (A') (A') (A') (A') (A') (A')
                 (A') (A') (A') (A') (A") (A') (A') (A") (A") (A')
                 (A') (A") (A') (A') (A") (A') (A") (A') (A') (A')
                 (A') (A") (A') (A") (A') (A') (A") (A") (A') (A')
                 (A') (A') (A") (A') (A") (A') (A') (A") (A') (A')
                 (A") (A") (A') (A") (A') (A") (A') (A") (A") (A')
                 (A') (A") (A') (A') (A') (A') (A") (A') (A') (A')
                 (A") (A') (A') (A') (A') (A') (A') (A') (A') (A')
                 (A') (A") (A") (A') (A') (A') (A") (A') (A") (A')
                 (A') (A') (A") (A') (A') (A') (A") (A") (A") (A')
                 (A') (A') (A") (A') (A") (A") (A") (A') (A") (A")
                 (A') (A') (A") (A') (A") (A') (A') (A') (A') (A')
                 (A') (A') (A') (A') (A') (A') (A") (A') (A") (A')
                 (A") (A') (A") (A") (A') (A") (A') (A') (A') (A')
                 (A') (A') (A') (A') (A') (A') (A') (A') (A') (A')
                 (A') (A') (A') (A') (A') (A') (A') (A') (A') (A")
                 (A") (A") (A") (A") (A') (A') (A') (A') (A') (A')
                 (A') (A') (A') (A') (A') (A') (A') (A') (A')
 ExpMin= 4.38D-02 ExpMax= 1.06D+05 ExpMxC= 3.62D+03 IAcc=3 IRadAn=         5 AccDes= 0.00D+00
 Harris functional with IExCor= 1009 and IRadAn=       5 diagonalized for initial guess.
 HarFok:  IExCor= 1009 AccDes= 0.00D+00 IRadAn=         5 IDoV= 1 UseB2=F ITyADJ=14
 ICtDFT=  3500011 ScaDFX=  1.000000  1.000000  1.000000  1.000000
 FoFCou: FMM=F IPFlag=           0 FMFlag=      100000 FMFlg1=           0
         NFxFlg=           0 DoJE=T BraDBF=F KetDBF=T FulRan=T
         wScrn=  0.000000 ICntrl=       500 IOpCl=  0 I1Cent=   200000004 NGrid=           0
         NMat0=    1 NMatS0=      1 NMatT0=    0 NMatD0=    1 NMtDS0=    0 NMtDT0=    0
 Petite list used in FoFCou.
 Requested convergence on RMS density matrix=1.00D-08 within 128 cycles.
 Requested convergence on MAX density matrix=1.00D-06.
 Requested convergence on             energy=1.00D-06.
 No special actions if energy rises.
 SCF Done:  E(RM062X) =  -2529.07459051     A.U. after   18 cycles
            NFock= 18  Conv=0.44D-08     -V/T= 2.0005
 Calling FoFJK, ICntrl=      2127 FMM=F ISym2X=1 I1Cent= 0 IOpClX= 0 NMat=1 NMatS=1 NMatT=0.
 ***** Axes restored to original set *****
 -------------------------------------------------------------------
 Center     Atomic                   Forces (Hartrees/Bohr)
 Number     Number              X              Y              Z
 -------------------------------------------------------------------
      1        6          -0.573229736   -0.301503690   -0.000000000
      2        6           0.004200070    0.004316277    0.000000000
      3        6          -0.009076541    0.047181847    0.000000000
      4        6           0.542323328    0.324193428    0.000000000
      5        6           0.556595451   -0.329461476   -0.000000000
      6        6           0.005808755   -0.033957899   -0.000000000
      7       17          -0.002038283    0.012450362    0.000000000
      8       17           0.536220323    0.293967984    0.000000000
      9       17          -0.004335212   -0.018481357   -0.000000000
     10       17          -0.525068422   -0.311221216   -0.000000000
     11       17          -0.531399732    0.312515743    0.000000000
 -------------------------------------------------------------------
 Cartesian Forces:  Max     0.573229736 RMS     0.267857039

 GradGradGradGradGradGradGradGradGradGradGradGradGradGradGradGradGradGrad
 Berny optimization.
 Using GEDIIS/GDIIS optimizer.
 FormGI is forming the generalized inverse of G from B-inverse, IUseBI=4.
 Internal  Forces:  Max     0.616482908 RMS     0.155139289
 Search for a local minimum.
 Step number   3 out of a maximum of   57
 All quantities printed in internal units (Hartrees-Bohrs-Radians)
 Mixed Optimization -- RFO/linear search
 Update second derivatives using D2CorX and points    2    3
 ITU=  0  1  0
 Use linear search instead of GDIIS.
 Linear search step of   1.200 exceeds DXMaxT=   0.505 scaled by   0.841
 Quartic linear search produced a step of  1.68184.
 Iteration  1 RMS(Cart)=  0.12698063 RMS(Int)=  0.07584573
 Iteration  2 RMS(Cart)=  0.05371356 RMS(Int)=  0.02470973
 Iteration  3 RMS(Cart)=  0.02437492 RMS(Int)=  0.00111422
 Iteration  4 RMS(Cart)=  0.00000482 RMS(Int)=  0.00111422
 Iteration  5 RMS(Cart)=  0.00000000 RMS(Int)=  0.00111422
 ClnCor:  largest displacement from symmetrization is 8.24D-09 for atom     7.
 Variable       Old X    -DE/DX   Delta X   Delta X   Delta X     New X
                                 (Linear)    (Quad)   (Total)
    R1        2.75652  -0.01540   0.14567   0.00000   0.14407   2.90058
    R2        2.74783  -0.02919   0.14229   0.00000   0.14174   2.88957
    R3        2.49317   0.61149   0.50066   0.00000   0.50066   2.99383
    R4        2.57916  -0.00841  -0.04688   0.00000  -0.04765   2.53152
    R5        2.77360  -0.02316   0.17144   0.00000   0.17186   2.94546
    R6        3.32823   0.01840   0.02182   0.00000   0.02182   3.35004
    R7        2.86095  -0.03100   0.26346   0.00000   0.26506   3.12601
    R8        2.49058   0.61036   0.49777   0.00000   0.49777   2.98835
    R9        2.76764  -0.02872   0.16482   0.00000   0.16547   2.93312
   R10        2.48929   0.61648   0.49633   0.00000   0.49633   2.98562
   R11        3.31831   0.01245   0.01070   0.00000   0.01070   3.32901
    A1        1.98066   0.00692  -0.11248   0.00000  -0.11511   1.86556
    A2        2.11676   0.00319   0.01905   0.00000   0.02036   2.13713
    A3        2.18576  -0.01011   0.09343   0.00000   0.09474   2.28050
    A4        2.10557  -0.01638   0.02729   0.00000   0.02363   2.12920
    A5        2.24054   0.00742   0.13272   0.00000   0.13265   2.37319
    A6        2.03480   0.00405  -0.05126   0.00000  -0.05123   1.98358
    A7        2.00784  -0.01147  -0.08145   0.00000  -0.08142   1.92642
    A8        1.98834  -0.00150  -0.10273   0.00000  -0.09977   1.88857
    A9        2.18055   0.00569   0.08706   0.00000   0.08558   2.26614
   A10        2.11429  -0.00419   0.01567   0.00000   0.01419   2.12848
   A11        2.01482   0.00140  -0.07300   0.00000  -0.06988   1.94494
   A12        2.10174  -0.00167   0.00158   0.00000   0.00001   2.10176
   A13        2.16663   0.00027   0.07143   0.00000   0.06986   2.23649
   A14        2.23644   0.00214   0.12821   0.00000   0.12847   2.36491
   A15        2.03602   0.00226  -0.04994   0.00000  -0.05007   1.98595
   A16        2.01072  -0.00440  -0.07827   0.00000  -0.07840   1.93232
    D1        0.00000  -0.00000   0.00000   0.00000  -0.00000   0.00000
    D2        3.14159  -0.00000   0.00000   0.00000   0.00000   3.14159
    D3       -0.00000   0.00000   0.00000   0.00000   0.00000   0.00000
    D4        3.14159   0.00000   0.00000   0.00000   0.00000   3.14159
    D5        3.14159   0.00000   0.00000   0.00000   0.00000   3.14159
    D6        0.00000   0.00000   0.00000   0.00000   0.00000   0.00000
    D7       -0.00000  -0.00000   0.00000   0.00000   0.00000   0.00000
    D8        3.14159   0.00000   0.00000   0.00000   0.00000   3.14159
    D9        0.00000   0.00000   0.00000   0.00000  -0.00000   0.00000
   D10        3.14159   0.00000   0.00000   0.00000   0.00000   3.14159
   D11        3.14159  -0.00000   0.00000   0.00000   0.00000   3.14159
   D12        0.00000  -0.00000   0.00000   0.00000   0.00000   0.00000
   D13        0.00000   0.00000   0.00000   0.00000   0.00000   0.00000
   D14        3.14159   0.00000   0.00000   0.00000   0.00000   3.14159
   D15        3.14159   0.00000   0.00000   0.00000   0.00000   3.14159
   D16       -0.00000   0.00000   0.00000   0.00000   0.00000   0.00000
   D17       -0.00000  -0.00000   0.00000   0.00000   0.00000   0.00000
   D18        3.14159  -0.00000   0.00000   0.00000   0.00000   3.14159
   D19        3.14159  -0.00000   0.00000   0.00000   0.00000   3.14159
   D20        0.00000  -0.00000   0.00000   0.00000   0.00000   0.00000
         Item               Value     Threshold  Converged?
 Maximum Force            0.616483     0.000450     NO 
 RMS     Force            0.155139     0.000300     NO 
 Maximum Displacement     0.761343     0.001800     NO 
 RMS     Displacement     0.198069     0.001200     NO 
 Predicted change in Energy=-2.030917D-01
 GradGradGradGradGradGradGradGradGradGradGradGradGradGradGradGradGradGrad

                          Input orientation:                          
 ---------------------------------------------------------------------
 Center     Atomic      Atomic             Coordinates (Angstroms)
 Number     Number       Type             X           Y           Z
 ---------------------------------------------------------------------
      1          6           0        1.477151    0.749340    0.000000
      2          6           0        1.305997   -0.776011   -0.000000
      3          6           0        0.097805   -1.354676   -0.000000
      4          6           0       -1.380888   -0.861806   -0.000000
      5          6           0       -1.374337    0.792395    0.000000
      6          6           0        0.072661    1.353936    0.000000
      7         17           0        0.057414    3.115507    0.000000
      8         17           0        2.900522    1.444983    0.000000
      9         17           0        0.157871   -3.126424   -0.000000
     10         17           0       -2.725956   -1.693377   -0.000000
     11         17           0       -2.733558    1.597793    0.000000
 ---------------------------------------------------------------------
                    Distance matrix (angstroms):
                    1          2          3          4          5
     1  C    0.000000
     2  C    1.534922   0.000000
     3  C    2.515845   1.339620   0.000000
     4  C    3.280880   2.688254   1.558670   0.000000
     5  C    2.851812   3.105492   2.603289   1.654213   0.000000
     6  C    1.529094   2.461258   2.708729   2.649966   1.552138
     7  Cl   2.759420   4.086914   4.470365   4.229388   2.728875
     8  Cl   1.584268   2.734104   3.961479   4.863306   4.324383
     9  Cl   4.094148   2.615844   1.772766   2.737932   4.207707
    10  Cl   4.861375   4.134998   2.844001   1.581366   2.829476
    11  Cl   4.295340   4.685397   4.090683   2.807017   1.579921
                    6          7          8          9         10
     6  C    0.000000
     7  Cl   1.761636   0.000000
     8  Cl   2.829326   3.297562   0.000000
     9  Cl   4.481171   6.242739   5.331032   0.000000
    10  Cl   4.137436   5.556304   6.442558   3.220261   0.000000
    11  Cl   2.816795   3.176945   5.636152   5.538826   3.291179
                   11
    11  Cl   0.000000
 Stoichiometry    C6Cl5(1-)
 Framework group  CS[SG(C6Cl5)]
 Deg. of freedom    19
 Full point group                 CS      NOp   2
 Largest Abelian subgroup         CS      NOp   2
 Largest concise Abelian subgroup C1      NOp   1
                         Standard orientation:                         
 ---------------------------------------------------------------------
 Center     Atomic      Atomic             Coordinates (Angstroms)
 Number     Number       Type             X           Y           Z
 ---------------------------------------------------------------------
      1          6           0       -1.388637    1.272751    0.000000
      2          6           0        0.017887    1.887304    0.000000
      3          6           0        1.123177    1.130392    0.000000
      4          6           0        1.435796   -0.396606   -0.000000
      5          6           0        0.000000   -1.218136   -0.000000
      6          6           0       -1.209879   -0.245858   -0.000000
      7         17           0       -2.727755   -1.139958   -0.000000
      8         17           0       -2.702832    2.157510    0.000000
      9         17           0        2.627455    2.068394    0.000000
     10         17           0        2.828546   -1.145582   -0.000000
     11         17           0       -0.017770   -2.797957   -0.000000
 ---------------------------------------------------------------------
 Rotational constants (GHZ):           0.6533625           0.4515034           0.2669965
 Standard basis: 6-311++G(d,p) (5D, 7F)
 There are   217 symmetry adapted cartesian basis functions of A'  symmetry.
 There are    76 symmetry adapted cartesian basis functions of A"  symmetry.
 There are   206 symmetry adapted basis functions of A'  symmetry.
 There are    76 symmetry adapted basis functions of A"  symmetry.
   282 basis functions,   481 primitive gaussians,   293 cartesian basis functions
    61 alpha electrons       61 beta electrons
       nuclear repulsion energy      1031.5244915200 Hartrees.
 NAtoms=   11 NActive=   11 NUniq=   11 SFac= 1.00D+00 NAtFMM=   60 NAOKFM=F Big=F
 Integral buffers will be    131072 words long.
 Raffenetti 2 integral format.
 Two-electron integral symmetry is turned on.
 One-electron integrals computed using PRISM.
 NBasis=   282 RedAO= T EigKep=  1.33D-06  NBF=   206    76
 NBsUse=   281 1.00D-06 EigRej=  6.44D-07 NBFU=   205    76
 Initial guess from the checkpoint file:  "frequency_chks/Hexachlorobenzene_anion_product_Freq.chk"
 B after Tr=    -0.000000   -0.000000   -0.000000
         Rot=    0.999999    0.000000    0.000000   -0.001267 Ang=  -0.15 deg.
 Initial guess orbital symmetries:
       Occupied  (A') (A') (A') (A') (A') (A') (A') (A') (A') (A')
                 (A') (A') (A') (A') (A') (A') (A') (A') (A") (A')
                 (A") (A') (A') (A") (A') (A') (A") (A') (A') (A")
                 (A') (A') (A') (A') (A') (A') (A') (A') (A') (A')
                 (A') (A') (A') (A') (A") (A') (A") (A") (A') (A')
                 (A") (A') (A") (A') (A') (A') (A') (A") (A") (A")
                 (A')
       Virtual   (A') (A') (A') (A") (A') (A') (A") (A') (A") (A")
                 (A') (A') (A") (A') (A') (A") (A") (A') (A') (A')
                 (A') (A") (A') (A') (A") (A') (A") (A') (A") (A')
                 (A') (A') (A") (A") (A') (A') (A") (A') (A') (A')
                 (A') (A') (A') (A') (A') (A') (A') (A') (A') (A')
                 (A') (A') (A') (A') (A") (A') (A') (A") (A") (A')
                 (A') (A') (A") (A") (A') (A') (A') (A') (A') (A")
                 (A') (A') (A') (A") (A') (A") (A') (A') (A") (A")
                 (A') (A') (A') (A") (A") (A') (A') (A") (A') (A")
                 (A") (A') (A") (A") (A') (A') (A') (A") (A') (A")
                 (A') (A") (A') (A') (A') (A') (A') (A") (A') (A')
                 (A") (A') (A') (A') (A') (A') (A') (A') (A') (A')
                 (A') (A") (A') (A") (A') (A') (A") (A') (A") (A')
                 (A') (A") (A') (A') (A') (A") (A') (A") (A') (A')
                 (A") (A') (A") (A') (A") (A') (A') (A") (A") (A")
                 (A") (A') (A") (A') (A") (A') (A') (A') (A') (A')
                 (A') (A') (A') (A') (A') (A') (A') (A') (A") (A')
                 (A") (A") (A") (A") (A') (A') (A") (A') (A') (A')
                 (A') (A') (A') (A') (A') (A') (A') (A') (A') (A')
                 (A') (A') (A') (A') (A') (A') (A') (A') (A') (A")
                 (A") (A") (A") (A") (A') (A') (A') (A') (A') (A')
                 (A') (A') (A') (A') (A') (A') (A') (A') (A') (A')
 ExpMin= 4.38D-02 ExpMax= 1.06D+05 ExpMxC= 3.62D+03 IAcc=3 IRadAn=         5 AccDes= 0.00D+00
 Harris functional with IExCor= 1009 and IRadAn=       5 diagonalized for initial guess.
 HarFok:  IExCor= 1009 AccDes= 0.00D+00 IRadAn=         5 IDoV= 1 UseB2=F ITyADJ=14
 ICtDFT=  3500011 ScaDFX=  1.000000  1.000000  1.000000  1.000000
 FoFCou: FMM=F IPFlag=           0 FMFlag=      100000 FMFlg1=           0
         NFxFlg=           0 DoJE=T BraDBF=F KetDBF=T FulRan=T
         wScrn=  0.000000 ICntrl=       500 IOpCl=  0 I1Cent=   200000004 NGrid=           0
         NMat0=    1 NMatS0=      1 NMatT0=    0 NMatD0=    1 NMtDS0=    0 NMtDT0=    0
 Petite list used in FoFCou.
 Requested convergence on RMS density matrix=1.00D-08 within 128 cycles.
 Requested convergence on MAX density matrix=1.00D-06.
 Requested convergence on             energy=1.00D-06.
 No special actions if energy rises.
 SCF Done:  E(RM062X) =  -2529.44297370     A.U. after   18 cycles
            NFock= 18  Conv=0.32D-08     -V/T= 2.0024
 Calling FoFJK, ICntrl=      2127 FMM=F ISym2X=1 I1Cent= 0 IOpClX= 0 NMat=1 NMatS=1 NMatT=0.
 ***** Axes restored to original set *****
 -------------------------------------------------------------------
 Center     Atomic                   Forces (Hartrees/Bohr)
 Number     Number              X              Y              Z
 -------------------------------------------------------------------
      1        6          -0.212117232   -0.119738986   -0.000000000
      2        6           0.042016919    0.079609714    0.000000000
      3        6          -0.085386762    0.014097000   -0.000000000
      4        6           0.162249601    0.148956073    0.000000000
      5        6           0.167564387   -0.153423655   -0.000000000
      6        6           0.006647109   -0.013470875   -0.000000000
      7       17          -0.000964362    0.016012925    0.000000000
      8       17           0.068790937    0.045684482    0.000000000
      9       17          -0.006248166   -0.023510978   -0.000000000
     10       17          -0.070474631   -0.044511225   -0.000000000
     11       17          -0.072077799    0.050295526    0.000000000
 -------------------------------------------------------------------
 Cartesian Forces:  Max     0.212117232 RMS     0.077385344

 GradGradGradGradGradGradGradGradGradGradGradGradGradGradGradGradGradGrad
 Berny optimization.
 Using GEDIIS/GDIIS optimizer.
 FormGI is forming the generalized inverse of G from B-inverse, IUseBI=4.
 Internal  Forces:  Max     0.108518533 RMS     0.039659069
 Search for a local minimum.
 Step number   4 out of a maximum of   57
 All quantities printed in internal units (Hartrees-Bohrs-Radians)
 Mixed Optimization -- RFO/linear search
 Update second derivatives using D2CorX and points    3    4
 ITU=  0  0  1  0
 Use linear search instead of GDIIS.
     Eigenvalues ---    0.02239   0.02242   0.02247   0.02252   0.02255
     Eigenvalues ---    0.02262   0.02262   0.02262   0.24961   0.25000
     Eigenvalues ---    0.25000   0.25000   0.25000   0.25000   0.25000
     Eigenvalues ---    0.25803   0.30371   0.30398   0.43805   0.44796
     Eigenvalues ---    0.47375   0.47773   0.47868   0.49081   1.10479
     Eigenvalues ---   12.00787  12.00890
 RFO step:  Lambda=-1.04380464D-01 EMin= 2.23881070D-02
 Quartic linear search produced a step of  0.03698.
 Iteration  1 RMS(Cart)=  0.07353114 RMS(Int)=  0.00249324
 Iteration  2 RMS(Cart)=  0.00327289 RMS(Int)=  0.00018314
 Iteration  3 RMS(Cart)=  0.00000500 RMS(Int)=  0.00018311
 Iteration  4 RMS(Cart)=  0.00000000 RMS(Int)=  0.00018311
 ClnCor:  largest displacement from symmetrization is 3.75D-09 for atom    11.
 Variable       Old X    -DE/DX   Delta X   Delta X   Delta X     New X
                                 (Linear)    (Quad)   (Total)
    R1        2.90058  -0.06994   0.00533  -0.10787  -0.10245   2.79813
    R2        2.88957  -0.09384   0.00524  -0.15394  -0.14840   2.74117
    R3        2.99383   0.08186   0.01851   0.05279   0.07130   3.06514
    R4        2.53152   0.00967  -0.00176   0.01720   0.01523   2.54674
    R5        2.94546  -0.08417   0.00635  -0.12821  -0.12215   2.82331
    R6        3.35004   0.02329   0.00081   0.06012   0.06093   3.41097
    R7        3.12601  -0.10852   0.00980  -0.16788  -0.15818   2.96783
    R8        2.98835   0.08335   0.01841   0.05265   0.07105   3.05940
    R9        2.93312  -0.09507   0.00612  -0.15514  -0.14881   2.78431
   R10        2.98562   0.08765   0.01835   0.05285   0.07121   3.05682
   R11        3.32901   0.01602   0.00040   0.04090   0.04130   3.37031
    A1        1.86556   0.04880  -0.00426   0.12933   0.12550   1.99106
    A2        2.13713  -0.00818   0.00075  -0.02183  -0.02129   2.11583
    A3        2.28050  -0.04062   0.00350  -0.10749  -0.10421   2.17630
    A4        2.12920  -0.03043   0.00087  -0.07016  -0.06944   2.05976
    A5        2.37319  -0.02981   0.00490  -0.06436  -0.05992   2.31327
    A6        1.98358   0.02670  -0.00189   0.06782   0.06616   2.04973
    A7        1.92642   0.00311  -0.00301  -0.00346  -0.00624   1.92018
    A8        1.88857   0.02396  -0.00369   0.05981   0.05568   1.94425
    A9        2.26614  -0.01317   0.00316  -0.03000  -0.02662   2.23952
   A10        2.12848  -0.01079   0.00052  -0.02981  -0.02907   2.09941
   A11        1.94494   0.02138  -0.00258   0.04253   0.04007   1.98501
   A12        2.10176  -0.00094   0.00000   0.00373   0.00367   2.10542
   A13        2.23649  -0.02044   0.00258  -0.04626  -0.04373   2.19276
   A14        2.36491  -0.03390   0.00475  -0.09714  -0.09189   2.27302
   A15        1.98595   0.01832  -0.00185   0.05380   0.05170   2.03765
   A16        1.93232   0.01558  -0.00290   0.04334   0.04019   1.97251
    D1        0.00000  -0.00000   0.00000  -0.00000   0.00000   0.00000
    D2        3.14159  -0.00000   0.00000  -0.00000   0.00000   3.14159
    D3       -0.00000   0.00000   0.00000  -0.00000   0.00000   0.00000
    D4        3.14159   0.00000   0.00000  -0.00000   0.00000   3.14159
    D5        3.14159   0.00000   0.00000   0.00000   0.00000   3.14159
    D6       -0.00000   0.00000   0.00000   0.00000   0.00000   0.00000
    D7       -0.00000  -0.00000   0.00000   0.00000   0.00000   0.00000
    D8        3.14159   0.00000   0.00000   0.00000   0.00000   3.14159
    D9       -0.00000   0.00000   0.00000   0.00000   0.00000   0.00000
   D10        3.14159   0.00000   0.00000   0.00000   0.00000   3.14159
   D11        3.14159   0.00000   0.00000   0.00000   0.00000   3.14159
   D12        0.00000   0.00000   0.00000   0.00000  -0.00000   0.00000
   D13        0.00000  -0.00000   0.00000  -0.00000   0.00000   0.00000
   D14        3.14159  -0.00000   0.00000  -0.00000   0.00000   3.14159
   D15        3.14159  -0.00000   0.00000  -0.00000   0.00000   3.14159
   D16       -0.00000  -0.00000   0.00000  -0.00000   0.00000   0.00000
   D17        0.00000   0.00000   0.00000   0.00000  -0.00000   0.00000
   D18        3.14159  -0.00000   0.00000   0.00000   0.00000   3.14159
   D19        3.14159   0.00000   0.00000   0.00000   0.00000   3.14159
   D20        0.00000  -0.00000   0.00000   0.00000   0.00000   0.00000
         Item               Value     Threshold  Converged?
 Maximum Force            0.108519     0.000450     NO 
 RMS     Force            0.039659     0.000300     NO 
 Maximum Displacement     0.215169     0.001800     NO 
 RMS     Displacement     0.074004     0.001200     NO 
 Predicted change in Energy=-6.387018D-02
 GradGradGradGradGradGradGradGradGradGradGradGradGradGradGradGradGradGrad

                          Input orientation:                          
 ---------------------------------------------------------------------
 Center     Atomic      Atomic             Coordinates (Angstroms)
 Number     Number       Type             X           Y           Z
 ---------------------------------------------------------------------
      1          6           0        1.371485    0.706533    0.000000
      2          6           0        1.320400   -0.773293   -0.000000
      3          6           0        0.109512   -1.364892   -0.000000
      4          6           0       -1.281317   -0.819256   -0.000000
      5          6           0       -1.280681    0.751253    0.000000
      6          6           0        0.068354    1.343697    0.000000
      7         17           0        0.046797    3.127056    0.000000
      8         17           0        2.786659    1.499103    0.000000
      9         17           0        0.065334   -3.169360   -0.000000
     10         17           0       -2.679633   -1.635198   -0.000000
     11         17           0       -2.672228    1.576015    0.000000
 ---------------------------------------------------------------------
                    Distance matrix (angstroms):
                    1          2          3          4          5
     1  C    0.000000
     2  C    1.480707   0.000000
     3  C    2.425567   1.347679   0.000000
     4  C    3.060293   2.602123   1.494029   0.000000
     5  C    2.652543   3.014940   2.531937   1.570510   0.000000
     6  C    1.450562   2.459526   2.708902   2.549506   1.473392
     7  Cl   2.759299   4.103021   4.492385   4.163805   2.721514
     8  Cl   1.622000   2.704385   3.920406   4.682224   4.135521
     9  Cl   4.090058   2.704872   1.805009   2.708589   4.145234
    10  Cl   4.679237   4.091839   2.802212   1.618965   2.766263
    11  Cl   4.136135   4.632529   4.048087   2.769830   1.617601
                    6          7          8          9         10
     6  C    0.000000
     7  Cl   1.783489   0.000000
     8  Cl   2.722745   3.187017   0.000000
     9  Cl   4.513058   6.296443   5.403717   0.000000
    10  Cl   4.052807   5.487484   6.301126   3.144598   0.000000
    11  Cl   2.750410   3.130307   5.459429   5.478397   3.211221
                   11
    11  Cl   0.000000
 Stoichiometry    C6Cl5(1-)
 Framework group  CS[SG(C6Cl5)]
 Deg. of freedom    19
 Full point group                 CS      NOp   2
 Largest Abelian subgroup         CS      NOp   2
 Largest concise Abelian subgroup C1      NOp   1
                         Standard orientation:                         
 ---------------------------------------------------------------------
 Center     Atomic      Atomic             Coordinates (Angstroms)
 Number     Number       Type             X           Y           Z
 ---------------------------------------------------------------------
      1          6           0       -1.311629    1.200342    0.000000
      2          6           0       -0.011895    1.909696    0.000000
      3          6           0        1.113731    1.168611    0.000000
      4          6           0        1.352107   -0.306279   -0.000000
      5          6           0       -0.000000   -1.105221   -0.000000
      6          6           0       -1.196678   -0.245659   -0.000000
      7         17           0       -2.720693   -1.172056   -0.000000
      8         17           0       -2.714230    2.014955    0.000000
      9         17           0        2.689379    2.049174    0.000000
     10         17           0        2.766243   -1.094484   -0.000000
     11         17           0       -0.001511   -2.722821   -0.000000
 ---------------------------------------------------------------------
 Rotational constants (GHZ):           0.6904818           0.4546263           0.2741324
 Standard basis: 6-311++G(d,p) (5D, 7F)
 There are   217 symmetry adapted cartesian basis functions of A'  symmetry.
 There are    76 symmetry adapted cartesian basis functions of A"  symmetry.
 There are   206 symmetry adapted basis functions of A'  symmetry.
 There are    76 symmetry adapted basis functions of A"  symmetry.
   282 basis functions,   481 primitive gaussians,   293 cartesian basis functions
    61 alpha electrons       61 beta electrons
       nuclear repulsion energy      1044.2154800335 Hartrees.
 NAtoms=   11 NActive=   11 NUniq=   11 SFac= 1.00D+00 NAtFMM=   60 NAOKFM=F Big=F
 Integral buffers will be    131072 words long.
 Raffenetti 2 integral format.
 Two-electron integral symmetry is turned on.
 One-electron integrals computed using PRISM.
 NBasis=   282 RedAO= T EigKep=  2.66D-06  NBF=   206    76
 NBsUse=   280 1.00D-06 EigRej=  9.80D-07 NBFU=   204    76
 Initial guess from the checkpoint file:  "frequency_chks/Hexachlorobenzene_anion_product_Freq.chk"
 B after Tr=     0.000000   -0.000000    0.000000
         Rot=    0.999988    0.000000    0.000000   -0.004848 Ang=  -0.56 deg.
 Initial guess orbital symmetries:
       Occupied  (A') (A') (A') (A') (A') (A') (A') (A') (A') (A')
                 (A') (A') (A') (A') (A') (A') (A') (A') (A") (A')
                 (A") (A') (A') (A") (A') (A') (A") (A') (A') (A")
                 (A') (A') (A') (A') (A') (A') (A') (A') (A') (A')
                 (A') (A') (A') (A') (A') (A") (A') (A") (A") (A')
                 (A') (A") (A") (A') (A') (A') (A') (A") (A") (A")
                 (A')
       Virtual   (A") (A') (A') (A') (A') (A") (A') (A') (A") (A")
                 (A') (A") (A') (A') (A') (A') (A") (A") (A') (A')
                 (A') (A') (A") (A') (A') (A') (A") (A') (A') (A")
                 (A') (A") (A') (A') (A") (A') (A") (A') (A') (A')
                 (A") (A') (A') (A') (A') (A') (A') (A') (A') (A')
                 (A') (A') (A') (A') (A') (A') (A') (A") (A') (A")
                 (A') (A") (A') (A') (A') (A") (A') (A") (A') (A')
                 (A') (A") (A') (A') (A') (A") (A') (A") (A') (A")
                 (A") (A') (A") (A') (A') (A") (A") (A') (A") (A')
                 (A") (A') (A') (A") (A') (A") (A') (A') (A') (A")
                 (A') (A") (A') (A') (A") (A') (A') (A') (A') (A')
                 (A") (A') (A") (A') (A') (A') (A') (A') (A') (A')
                 (A') (A') (A') (A") (A') (A') (A") (A') (A") (A")
                 (A") (A') (A') (A') (A') (A') (A') (A") (A') (A")
                 (A') (A") (A') (A') (A") (A") (A') (A') (A') (A')
                 (A") (A') (A") (A") (A") (A') (A') (A") (A") (A')
                 (A') (A') (A') (A') (A') (A') (A') (A') (A') (A")
                 (A') (A') (A") (A") (A') (A") (A") (A") (A') (A')
                 (A') (A') (A') (A') (A') (A') (A') (A') (A') (A')
                 (A') (A') (A') (A') (A') (A') (A') (A') (A') (A')
                 (A") (A") (A") (A") (A") (A') (A') (A') (A') (A')
                 (A') (A') (A') (A') (A') (A') (A') (A') (A')
 ExpMin= 4.38D-02 ExpMax= 1.06D+05 ExpMxC= 3.62D+03 IAcc=3 IRadAn=         5 AccDes= 0.00D+00
 Harris functional with IExCor= 1009 and IRadAn=       5 diagonalized for initial guess.
 HarFok:  IExCor= 1009 AccDes= 0.00D+00 IRadAn=         5 IDoV= 1 UseB2=F ITyADJ=14
 ICtDFT=  3500011 ScaDFX=  1.000000  1.000000  1.000000  1.000000
 FoFCou: FMM=F IPFlag=           0 FMFlag=      100000 FMFlg1=           0
         NFxFlg=           0 DoJE=T BraDBF=F KetDBF=T FulRan=T
         wScrn=  0.000000 ICntrl=       500 IOpCl=  0 I1Cent=   200000004 NGrid=           0
         NMat0=    1 NMatS0=      1 NMatT0=    0 NMatD0=    1 NMtDS0=    0 NMtDT0=    0
 Petite list used in FoFCou.
 Requested convergence on RMS density matrix=1.00D-08 within 128 cycles.
 Requested convergence on MAX density matrix=1.00D-06.
 Requested convergence on             energy=1.00D-06.
 No special actions if energy rises.
 EnCoef did     4 forward-backward iterations
 SCF Done:  E(RM062X) =  -2529.53251424     A.U. after   16 cycles
            NFock= 16  Conv=0.82D-08     -V/T= 2.0023
 Calling FoFJK, ICntrl=      2127 FMM=F ISym2X=1 I1Cent= 0 IOpClX= 0 NMat=1 NMatS=1 NMatT=0.
 ***** Axes restored to original set *****
 -------------------------------------------------------------------
 Center     Atomic                   Forces (Hartrees/Bohr)
 Number     Number              X              Y              Z
 -------------------------------------------------------------------
      1        6          -0.130754235   -0.090345545   -0.000000000
      2        6           0.021886946    0.055336611    0.000000000
      3        6          -0.067702001    0.007652599   -0.000000000
      4        6           0.114293545    0.115805826    0.000000000
      5        6           0.112805647   -0.118997792   -0.000000000
      6        6          -0.004650575   -0.001565591   -0.000000000
      7       17           0.000468659    0.002278803    0.000000000
      8       17           0.054092843    0.035469200    0.000000000
      9       17           0.002061836   -0.008421803   -0.000000000
     10       17          -0.050580591   -0.030608377   -0.000000000
     11       17          -0.051922074    0.033396070    0.000000000
 -------------------------------------------------------------------
 Cartesian Forces:  Max     0.130754235 RMS     0.054605228

 GradGradGradGradGradGradGradGradGradGradGradGradGradGradGradGradGradGrad
 Berny optimization.
 Using GEDIIS/GDIIS optimizer.
 FormGI is forming the generalized inverse of G from B-inverse, IUseBI=4.
 Internal  Forces:  Max     0.088385857 RMS     0.027254979
 Search for a local minimum.
 Step number   5 out of a maximum of   57
 All quantities printed in internal units (Hartrees-Bohrs-Radians)
 Mixed Optimization -- RFO/linear search
 Update second derivatives using D2CorX and points    4    5
 DE= -8.95D-02 DEPred=-6.39D-02 R= 1.40D+00
 TightC=F SS=  1.41D+00  RLast= 4.20D-01 DXNew= 8.4853D-01 1.2595D+00
 Trust test= 1.40D+00 RLast= 4.20D-01 DXMaxT set to 8.49D-01
 ITU=  1  0  0  1  0
 Use linear search instead of GDIIS.
     Eigenvalues ---    0.02238   0.02241   0.02247   0.02250   0.02254
     Eigenvalues ---    0.02262   0.02262   0.02262   0.18469   0.24991
     Eigenvalues ---    0.25000   0.25000   0.25000   0.25000   0.25055
     Eigenvalues ---    0.26567   0.29750   0.30555   0.31878   0.44618
     Eigenvalues ---    0.44905   0.47757   0.47869   0.48791   0.91994
     Eigenvalues ---   12.00879  12.00888
 RFO step:  Lambda=-2.00078348D-02 EMin= 2.23830969D-02
 Quartic linear search produced a step of  1.39392.
 Iteration  1 RMS(Cart)=  0.07944728 RMS(Int)=  0.02170251
 Iteration  2 RMS(Cart)=  0.03223671 RMS(Int)=  0.00088880
 Iteration  3 RMS(Cart)=  0.00018366 RMS(Int)=  0.00087753
 Iteration  4 RMS(Cart)=  0.00000005 RMS(Int)=  0.00087753
 ClnCor:  largest displacement from symmetrization is 1.88D-08 for atom    10.
 Variable       Old X    -DE/DX   Delta X   Delta X   Delta X     New X
                                 (Linear)    (Quad)   (Total)
    R1        2.79813  -0.05201  -0.14281  -0.05335  -0.19682   2.60131
    R2        2.74117  -0.05024  -0.20686   0.02113  -0.18502   2.55615
    R3        3.06514   0.06453   0.09939   0.03196   0.13135   3.19649
    R4        2.54674   0.00431   0.02123  -0.00694   0.01288   2.55962
    R5        2.82331  -0.05961  -0.17027  -0.05392  -0.22497   2.59834
    R6        3.41097   0.00837   0.08493  -0.04304   0.04190   3.45287
    R7        2.96783  -0.08839  -0.22049  -0.12338  -0.34314   2.62469
    R8        3.05940   0.05911   0.09904   0.03058   0.12962   3.18902
    R9        2.78431  -0.05772  -0.20743  -0.01231  -0.21832   2.56599
   R10        3.05682   0.06169   0.09926   0.03058   0.12984   3.18666
   R11        3.37031   0.00227   0.05756  -0.05532   0.00224   3.37255
    A1        1.99106   0.02537   0.17494  -0.03645   0.13863   2.12968
    A2        2.11583  -0.00578  -0.02968  -0.01080  -0.04056   2.07527
    A3        2.17630  -0.01958  -0.14526   0.04726  -0.09807   2.07823
    A4        2.05976  -0.01705  -0.09679   0.02009  -0.07975   1.98001
    A5        2.31327  -0.01781  -0.08352  -0.00050  -0.08587   2.22741
    A6        2.04973   0.00506   0.09222  -0.09939  -0.00624   2.04349
    A7        1.92018   0.01275  -0.00870   0.09989   0.09211   2.01229
    A8        1.94425   0.01626   0.07761   0.00210   0.07992   2.02417
    A9        2.23952  -0.00956  -0.03710  -0.00749  -0.04469   2.19483
   A10        2.09941  -0.00670  -0.04051   0.00539  -0.03523   2.06418
   A11        1.98501   0.01587   0.05585   0.02091   0.07909   2.06409
   A12        2.10542  -0.00447   0.00511  -0.03350  -0.02956   2.07586
   A13        2.19276  -0.01140  -0.06096   0.01259  -0.04953   2.14323
   A14        2.27302  -0.02263  -0.12809  -0.00615  -0.13201   2.14101
   A15        2.03765   0.01046   0.07207  -0.01229   0.05866   2.09631
   A16        1.97251   0.01217   0.05602   0.01844   0.07335   2.04586
    D1        0.00000  -0.00000   0.00000  -0.00000   0.00000   0.00000
    D2        3.14159   0.00000   0.00000   0.00000   0.00000   3.14159
    D3       -0.00000   0.00000   0.00000   0.00000   0.00000   0.00000
    D4        3.14159   0.00000   0.00000   0.00000   0.00000   3.14159
    D5        3.14159   0.00000   0.00000  -0.00000   0.00000   3.14159
    D6        0.00000  -0.00000   0.00000  -0.00000   0.00000   0.00000
    D7        0.00000   0.00000   0.00000  -0.00000  -0.00000   0.00000
    D8        3.14159  -0.00000   0.00000  -0.00000   0.00000   3.14159
    D9       -0.00000   0.00000   0.00000   0.00000   0.00000   0.00000
   D10        3.14159   0.00000   0.00000   0.00000   0.00000   3.14159
   D11        3.14159   0.00000   0.00000   0.00000   0.00000   3.14159
   D12        0.00000   0.00000   0.00000   0.00000  -0.00000   0.00000
   D13        0.00000  -0.00000   0.00000  -0.00000  -0.00000   0.00000
   D14        3.14159  -0.00000   0.00000  -0.00000   0.00000   3.14159
   D15        3.14159  -0.00000   0.00000  -0.00000   0.00000   3.14159
   D16       -0.00000  -0.00000   0.00000  -0.00000   0.00000   0.00000
   D17        0.00000   0.00000   0.00000  -0.00000   0.00000   0.00000
   D18        3.14159   0.00000   0.00000   0.00000   0.00000   3.14159
   D19        3.14159   0.00000   0.00000  -0.00000   0.00000   3.14159
   D20       -0.00000  -0.00000   0.00000   0.00000   0.00000   0.00000
         Item               Value     Threshold  Converged?
 Maximum Force            0.088386     0.000450     NO 
 RMS     Force            0.027255     0.000300     NO 
 Maximum Displacement     0.260894     0.001800     NO 
 RMS     Displacement     0.096567     0.001200     NO 
 Predicted change in Energy=-7.301153D-02
 GradGradGradGradGradGradGradGradGradGradGradGradGradGradGradGradGradGrad

                          Input orientation:                          
 ---------------------------------------------------------------------
 Center     Atomic      Atomic             Coordinates (Angstroms)
 Number     Number       Type             X           Y           Z
 ---------------------------------------------------------------------
      1          6           0        1.233426    0.636059    0.000000
      2          6           0        1.294444   -0.739140    0.000000
      3          6           0        0.076893   -1.332627   -0.000000
      4          6           0       -1.154775   -0.721428   -0.000000
      5          6           0       -1.144691    0.667463    0.000000
      6          6           0        0.055917    1.301756    0.000000
      7         17           0        0.036338    3.086324    0.000000
      8         17           0        2.676521    1.518485    0.000000
      9         17           0        0.041924   -3.159472   -0.000000
     10         17           0       -2.646827   -1.509863   -0.000000
     11         17           0       -2.614487    1.494103   -0.000000
 ---------------------------------------------------------------------
                    Distance matrix (angstroms):
                    1          2          3          4          5
     1  C    0.000000
     2  C    1.376552   0.000000
     3  C    2.283264   1.354495   0.000000
     4  C    2.747048   2.449283   1.374981   0.000000
     5  C    2.378324   2.815654   2.343636   1.388927   0.000000
     6  C    1.352656   2.387300   2.634466   2.357763   1.357861
     7  Cl   2.727053   4.027034   4.419138   3.989702   2.691788
     8  Cl   1.691507   2.647075   3.858355   4.438021   3.914830
     9  Cl   3.978157   2.725218   1.827179   2.715907   4.006680
    10  Cl   4.434112   4.015922   2.729481   1.687557   2.645214
    11  Cl   3.942420   4.501901   3.903067   2.653175   1.686308
                    6          7          8          9         10
     6  C    0.000000
     7  Cl   1.784676   0.000000
     8  Cl   2.629550   3.070616   0.000000
     9  Cl   4.461250   6.245799   5.368834   0.000000
    10  Cl   3.900003   5.322059   6.124453   3.154456   0.000000
    11  Cl   2.677323   3.092255   5.291064   5.358384   3.004140
                   11
    11  Cl   0.000000
 Stoichiometry    C6Cl5(1-)
 Framework group  CS[SG(C6Cl5)]
 Deg. of freedom    19
 Full point group                 CS      NOp   2
 Largest Abelian subgroup         CS      NOp   2
 Largest concise Abelian subgroup C1      NOp   1
                         Standard orientation:                         
 ---------------------------------------------------------------------
 Center     Atomic      Atomic             Coordinates (Angstroms)
 Number     Number       Type             X           Y           Z
 ---------------------------------------------------------------------
      1          6           0       -1.177167    1.126711   -0.000000
      2          6           0       -0.022223    1.875709   -0.000000
      3          6           0        1.106097    1.126342   -0.000000
      4          6           0        1.202756   -0.245237    0.000000
      5          6           0       -0.000000   -0.939857    0.000000
      6          6           0       -1.154927   -0.225762    0.000000
      7         17           0       -2.683857   -1.146327    0.000000
      8         17           0       -2.668852    1.924252   -0.000000
      9         17           0        2.699105    2.021277   -0.000000
     10         17           0        2.638184   -1.132591    0.000000
     11         17           0        0.031467   -2.625872    0.000000
 ---------------------------------------------------------------------
 Rotational constants (GHZ):           0.7338815           0.4749558           0.2883442
 Standard basis: 6-311++G(d,p) (5D, 7F)
 There are   217 symmetry adapted cartesian basis functions of A'  symmetry.
 There are    76 symmetry adapted cartesian basis functions of A"  symmetry.
 There are   206 symmetry adapted basis functions of A'  symmetry.
 There are    76 symmetry adapted basis functions of A"  symmetry.
   282 basis functions,   481 primitive gaussians,   293 cartesian basis functions
    61 alpha electrons       61 beta electrons
       nuclear repulsion energy      1069.6145309838 Hartrees.
 NAtoms=   11 NActive=   11 NUniq=   11 SFac= 1.00D+00 NAtFMM=   60 NAOKFM=F Big=F
 Integral buffers will be    131072 words long.
 Raffenetti 2 integral format.
 Two-electron integral symmetry is turned on.
 One-electron integrals computed using PRISM.
 NBasis=   282 RedAO= T EigKep=  1.52D-06  NBF=   206    76
 NBsUse=   280 1.00D-06 EigRej=  5.86D-07 NBFU=   204    76
 Initial guess from the checkpoint file:  "frequency_chks/Hexachlorobenzene_anion_product_Freq.chk"
 B after Tr=    -0.000000    0.000000   -0.000000
         Rot=    0.999999   -0.000000   -0.000000    0.001398 Ang=   0.16 deg.
 Initial guess orbital symmetries:
       Occupied  (A') (A') (A') (A') (A') (A') (A') (A') (A') (A')
                 (A') (A') (A') (A') (A') (A') (A') (A') (A") (A')
                 (A") (A') (A') (A") (A') (A') (A") (A') (A') (A")
                 (A') (A') (A') (A') (A') (A') (A') (A') (A') (A')
                 (A') (A') (A') (A') (A') (A") (A') (A") (A') (A")
                 (A') (A") (A") (A') (A') (A') (A') (A") (A") (A")
                 (A')
       Virtual   (A') (A") (A') (A') (A') (A") (A') (A') (A") (A")
                 (A') (A') (A") (A') (A') (A') (A") (A") (A') (A')
                 (A') (A") (A') (A') (A') (A") (A') (A") (A') (A')
                 (A") (A') (A') (A') (A") (A') (A") (A') (A') (A")
                 (A') (A') (A') (A') (A') (A') (A') (A') (A') (A')
                 (A') (A') (A') (A') (A') (A") (A') (A') (A") (A')
                 (A") (A') (A') (A') (A') (A") (A") (A') (A') (A')
                 (A") (A') (A') (A') (A") (A") (A') (A') (A") (A")
                 (A') (A') (A") (A') (A") (A') (A") (A') (A") (A')
                 (A") (A') (A") (A') (A') (A') (A") (A') (A") (A')
                 (A") (A') (A") (A') (A') (A') (A') (A') (A') (A')
                 (A") (A") (A') (A') (A') (A') (A') (A') (A') (A')
                 (A') (A') (A") (A') (A') (A") (A') (A") (A") (A")
                 (A') (A') (A') (A') (A') (A') (A') (A") (A") (A')
                 (A") (A') (A') (A") (A") (A') (A') (A') (A') (A')
                 (A") (A") (A") (A") (A') (A") (A') (A") (A') (A')
                 (A') (A') (A') (A') (A') (A') (A') (A') (A') (A")
                 (A") (A') (A") (A") (A") (A') (A") (A') (A') (A')
                 (A') (A') (A') (A') (A') (A') (A') (A') (A') (A')
                 (A') (A') (A') (A') (A') (A') (A') (A') (A') (A")
                 (A") (A") (A") (A") (A') (A') (A') (A') (A') (A')
                 (A') (A') (A') (A') (A') (A') (A') (A') (A')
 ExpMin= 4.38D-02 ExpMax= 1.06D+05 ExpMxC= 3.62D+03 IAcc=3 IRadAn=         5 AccDes= 0.00D+00
 Harris functional with IExCor= 1009 and IRadAn=       5 diagonalized for initial guess.
 HarFok:  IExCor= 1009 AccDes= 0.00D+00 IRadAn=         5 IDoV= 1 UseB2=F ITyADJ=14
 ICtDFT=  3500011 ScaDFX=  1.000000  1.000000  1.000000  1.000000
 FoFCou: FMM=F IPFlag=           0 FMFlag=      100000 FMFlg1=           0
         NFxFlg=           0 DoJE=T BraDBF=F KetDBF=T FulRan=T
         wScrn=  0.000000 ICntrl=       500 IOpCl=  0 I1Cent=   200000004 NGrid=           0
         NMat0=    1 NMatS0=      1 NMatT0=    0 NMatD0=    1 NMtDS0=    0 NMtDT0=    0
 Petite list used in FoFCou.
 Requested convergence on RMS density matrix=1.00D-08 within 128 cycles.
 Requested convergence on MAX density matrix=1.00D-06.
 Requested convergence on             energy=1.00D-06.
 No special actions if energy rises.
 SCF Done:  E(RM062X) =  -2529.59000506     A.U. after   17 cycles
            NFock= 17  Conv=0.39D-08     -V/T= 2.0020
 Calling FoFJK, ICntrl=      2127 FMM=F ISym2X=1 I1Cent= 0 IOpClX= 0 NMat=1 NMatS=1 NMatT=0.
 ***** Axes restored to original set *****
 -------------------------------------------------------------------
 Center     Atomic                   Forces (Hartrees/Bohr)
 Number     Number              X              Y              Z
 -------------------------------------------------------------------
      1        6           0.000968414   -0.033524160   -0.000000000
      2        6           0.008324729   -0.003235135    0.000000000
      3        6           0.005379646   -0.029458643   -0.000000000
      4        6           0.009457411    0.013904968    0.000000000
      5        6          -0.009319483   -0.022065647   -0.000000000
      6        6          -0.003603726    0.055083246    0.000000000
      7       17          -0.001157570   -0.003413570   -0.000000000
      8       17           0.037903777    0.021746578    0.000000000
      9       17          -0.000968056    0.002265457    0.000000000
     10       17          -0.023392789   -0.021192526   -0.000000000
     11       17          -0.023592353    0.019889431    0.000000000
 -------------------------------------------------------------------
 Cartesian Forces:  Max     0.055083246 RMS     0.017304948

 GradGradGradGradGradGradGradGradGradGradGradGradGradGradGradGradGradGrad
 Berny optimization.
 Using GEDIIS/GDIIS optimizer.
 FormGI is forming the generalized inverse of G from B-inverse, IUseBI=4.
 Internal  Forces:  Max     0.044159052 RMS     0.014201433
 Search for a local minimum.
 Step number   6 out of a maximum of   57
 All quantities printed in internal units (Hartrees-Bohrs-Radians)
 Mixed Optimization -- RFO/linear search
 Update second derivatives using D2CorX and points    5    6
 DE= -5.75D-02 DEPred=-7.30D-02 R= 7.87D-01
 TightC=F SS=  1.41D+00  RLast= 6.63D-01 DXNew= 1.4270D+00 1.9900D+00
 Trust test= 7.87D-01 RLast= 6.63D-01 DXMaxT set to 1.43D+00
 ITU=  1  1  0  0  1  0
 Use linear search instead of GDIIS.
     Eigenvalues ---    0.02238   0.02241   0.02246   0.02249   0.02253
     Eigenvalues ---    0.02262   0.02262   0.02262   0.21085   0.24990
     Eigenvalues ---    0.25000   0.25000   0.25000   0.25022   0.25430
     Eigenvalues ---    0.26635   0.30336   0.31029   0.37975   0.44390
     Eigenvalues ---    0.44681   0.47763   0.48133   0.51286   0.89782
     Eigenvalues ---   12.00872  12.00931
 RFO step:  Lambda=-1.21405266D-02 EMin= 2.23770002D-02
 Quartic linear search produced a step of -0.09849.
 Iteration  1 RMS(Cart)=  0.03568816 RMS(Int)=  0.00050098
 Iteration  2 RMS(Cart)=  0.00065322 RMS(Int)=  0.00005820
 Iteration  3 RMS(Cart)=  0.00000019 RMS(Int)=  0.00005820
 ClnCor:  largest displacement from symmetrization is 1.36D-11 for atom     7.
 Variable       Old X    -DE/DX   Delta X   Delta X   Delta X     New X
                                 (Linear)    (Quad)   (Total)
    R1        2.60131   0.01411   0.01939  -0.00613   0.01334   2.61465
    R2        2.55615   0.04416   0.01822   0.04848   0.06679   2.62294
    R3        3.19649   0.04368  -0.01294   0.05193   0.03899   3.23547
    R4        2.55962   0.01488  -0.00127   0.02766   0.02639   2.58601
    R5        2.59834   0.02116   0.02216   0.00059   0.02267   2.62101
    R6        3.45287  -0.00225  -0.00413   0.00581   0.00169   3.45456
    R7        2.62469   0.02345   0.03380  -0.00853   0.02518   2.64987
    R8        3.18902   0.03058  -0.01277   0.05054   0.03778   3.22680
    R9        2.56599   0.03961   0.02150   0.03653   0.05803   2.62402
   R10        3.18666   0.03031  -0.01279   0.05045   0.03766   3.22432
   R11        3.37255  -0.00340  -0.00022  -0.00558  -0.00580   3.36675
    A1        2.12968  -0.00143  -0.01365   0.03278   0.01928   2.14897
    A2        2.07527  -0.00124   0.00399  -0.01553  -0.01161   2.06366
    A3        2.07823   0.00267   0.00966  -0.01725  -0.00767   2.07056
    A4        1.98001   0.00891   0.00786   0.00637   0.01436   1.99436
    A5        2.22741  -0.00142   0.00846  -0.03052  -0.02214   2.20527
    A6        2.04349   0.00246   0.00062   0.01769   0.01835   2.06184
    A7        2.01229  -0.00104  -0.00907   0.01282   0.00379   2.01608
    A8        2.02417   0.00455  -0.00787   0.02982   0.02178   2.04594
    A9        2.19483  -0.01472   0.00440  -0.05783  -0.05334   2.14150
   A10        2.06418   0.01017   0.00347   0.02800   0.03156   2.09575
   A11        2.06409  -0.00080  -0.00779   0.01740   0.00951   2.07361
   A12        2.07586   0.00960   0.00291   0.02675   0.02971   2.10557
   A13        2.14323  -0.00880   0.00488  -0.04415  -0.03922   2.10401
   A14        2.14101  -0.00981   0.01300  -0.05586  -0.04279   2.09822
   A15        2.09631   0.00691  -0.00578   0.03430   0.02848   2.12480
   A16        2.04586   0.00290  -0.00722   0.02156   0.01430   2.06017
    D1       -0.00000   0.00000   0.00000   0.00000   0.00000   0.00000
    D2        3.14159   0.00000   0.00000   0.00000   0.00000   3.14159
    D3        0.00000   0.00000   0.00000  -0.00000  -0.00000   0.00000
    D4        3.14159   0.00000   0.00000   0.00000   0.00000   3.14159
    D5        3.14159  -0.00000   0.00000  -0.00000   0.00000   3.14159
    D6       -0.00000  -0.00000   0.00000  -0.00000   0.00000   0.00000
    D7        0.00000  -0.00000   0.00000  -0.00000  -0.00000   0.00000
    D8        3.14159   0.00000   0.00000   0.00000   0.00000   3.14159
    D9        0.00000   0.00000   0.00000   0.00000   0.00000   0.00000
   D10        3.14159   0.00000   0.00000   0.00000   0.00000   3.14159
   D11        3.14159  -0.00000   0.00000  -0.00000   0.00000   3.14159
   D12       -0.00000   0.00000   0.00000   0.00000   0.00000   0.00000
   D13       -0.00000  -0.00000   0.00000  -0.00000   0.00000   0.00000
   D14        3.14159   0.00000   0.00000  -0.00000   0.00000   3.14159
   D15        3.14159  -0.00000   0.00000  -0.00000   0.00000   3.14159
   D16       -0.00000  -0.00000   0.00000  -0.00000   0.00000   0.00000
   D17       -0.00000  -0.00000   0.00000   0.00000   0.00000   0.00000
   D18        3.14159  -0.00000   0.00000   0.00000   0.00000   3.14159
   D19        3.14159  -0.00000   0.00000   0.00000   0.00000   3.14159
   D20        0.00000  -0.00000   0.00000  -0.00000   0.00000   0.00000
         Item               Value     Threshold  Converged?
 Maximum Force            0.044159     0.000450     NO 
 RMS     Force            0.014201     0.000300     NO 
 Maximum Displacement     0.142033     0.001800     NO 
 RMS     Displacement     0.035742     0.001200     NO 
 Predicted change in Energy=-6.967273D-03
 GradGradGradGradGradGradGradGradGradGradGradGradGradGradGradGradGradGrad

                          Input orientation:                          
 ---------------------------------------------------------------------
 Center     Atomic      Atomic             Coordinates (Angstroms)
 Number     Number       Type             X           Y           Z
 ---------------------------------------------------------------------
      1          6           0        1.244640    0.636845    0.000000
      2          6           0        1.299870   -0.745664   -0.000000
      3          6           0        0.075789   -1.357470   -0.000000
      4          6           0       -1.159015   -0.725830   -0.000000
      5          6           0       -1.162266    0.676416    0.000000
      6          6           0        0.052890    1.348373    0.000000
      7         17           0        0.024818    3.129758    0.000000
      8         17           0        2.719464    1.506509    0.000000
      9         17           0        0.025439   -3.184848   -0.000000
     10         17           0       -2.634652   -1.585023   -0.000000
     11         17           0       -2.632295    1.542592    0.000000
 ---------------------------------------------------------------------
                    Distance matrix (angstroms):
                    1          2          3          4          5
     1  C    0.000000
     2  C    1.383612   0.000000
     3  C    2.311603   1.368459   0.000000
     4  C    2.763050   2.458965   1.386978   0.000000
     5  C    2.407232   2.843312   2.381065   1.402250   0.000000
     6  C    1.387999   2.437201   2.705940   2.402298   1.388571
     7  Cl   2.775353   4.079786   4.487518   4.033240   2.725446
     8  Cl   1.712139   2.662242   3.897614   4.475035   3.969494
     9  Cl   4.011458   2.752053   1.828072   2.729414   4.039803
    10  Cl   4.470527   4.023057   2.719976   1.707547   2.698524
    11  Cl   3.981333   4.549510   3.967881   2.704865   1.706238
                    6          7          8          9         10
     6  C    0.000000
     7  Cl   1.781606   0.000000
     8  Cl   2.671260   3.145800   0.000000
     9  Cl   4.533304   6.314606   5.409862   0.000000
    10  Cl   3.978404   5.413127   6.182567   3.104114   0.000000
    11  Cl   2.692200   3.095052   5.351882   5.423306   3.127617
                   11
    11  Cl   0.000000
 Stoichiometry    C6Cl5(1-)
 Framework group  CS[SG(C6Cl5)]
 Deg. of freedom    19
 Full point group                 CS      NOp   2
 Largest Abelian subgroup         CS      NOp   2
 Largest concise Abelian subgroup C1      NOp   1
                         Standard orientation:                         
 ---------------------------------------------------------------------
 Center     Atomic      Atomic             Coordinates (Angstroms)
 Number     Number       Type             X           Y           Z
 ---------------------------------------------------------------------
      1          6           0       -1.184717    1.134298    0.000000
      2          6           0       -0.020543    1.882014   -0.000000
      3          6           0        1.126884    1.136299   -0.000000
      4          6           0        1.207515   -0.248333   -0.000000
      5          6           0       -0.000000   -0.961224    0.000000
      6          6           0       -1.194776   -0.253665    0.000000
      7         17           0       -2.716655   -1.179952    0.000000
      8         17           0       -2.681471    1.965652    0.000000
      9         17           0        2.728135    2.018253   -0.000000
     10         17           0        2.695652   -1.085691   -0.000000
     11         17           0       -0.002495   -2.667460    0.000000
 ---------------------------------------------------------------------
 Rotational constants (GHZ):           0.7203630           0.4630820           0.2818780
 Standard basis: 6-311++G(d,p) (5D, 7F)
 There are   217 symmetry adapted cartesian basis functions of A'  symmetry.
 There are    76 symmetry adapted cartesian basis functions of A"  symmetry.
 There are   206 symmetry adapted basis functions of A'  symmetry.
 There are    76 symmetry adapted basis functions of A"  symmetry.
   282 basis functions,   481 primitive gaussians,   293 cartesian basis functions
    61 alpha electrons       61 beta electrons
       nuclear repulsion energy      1057.7019208598 Hartrees.
 NAtoms=   11 NActive=   11 NUniq=   11 SFac= 1.00D+00 NAtFMM=   60 NAOKFM=F Big=F
 Integral buffers will be    131072 words long.
 Raffenetti 2 integral format.
 Two-electron integral symmetry is turned on.
 One-electron integrals computed using PRISM.
 NBasis=   282 RedAO= T EigKep=  1.79D-06  NBF=   206    76
 NBsUse=   280 1.00D-06 EigRej=  6.55D-07 NBFU=   204    76
 Initial guess from the checkpoint file:  "frequency_chks/Hexachlorobenzene_anion_product_Freq.chk"
 B after Tr=     0.000000    0.000000    0.000000
         Rot=    1.000000    0.000000    0.000000    0.000005 Ang=   0.00 deg.
 Initial guess orbital symmetries:
       Occupied  (A') (A') (A') (A') (A') (A') (A') (A') (A') (A')
                 (A') (A') (A') (A') (A') (A') (A') (A') (A") (A')
                 (A") (A') (A') (A") (A') (A') (A") (A') (A') (A")
                 (A') (A') (A') (A') (A') (A') (A') (A') (A') (A')
                 (A') (A') (A') (A') (A") (A') (A') (A") (A') (A")
                 (A') (A') (A") (A") (A') (A') (A") (A') (A") (A")
                 (A')
       Virtual   (A') (A') (A') (A") (A') (A') (A') (A") (A") (A')
                 (A") (A') (A") (A') (A') (A') (A") (A") (A') (A')
                 (A') (A") (A') (A') (A') (A") (A') (A") (A') (A')
                 (A") (A') (A') (A') (A') (A") (A") (A') (A') (A")
                 (A') (A') (A') (A') (A') (A') (A') (A') (A') (A')
                 (A') (A') (A') (A') (A') (A") (A') (A') (A") (A')
                 (A") (A') (A') (A') (A") (A") (A') (A') (A') (A')
                 (A") (A') (A") (A") (A') (A") (A") (A') (A') (A")
                 (A') (A') (A') (A') (A") (A') (A') (A") (A') (A")
                 (A') (A") (A') (A') (A") (A') (A") (A') (A") (A")
                 (A') (A') (A") (A') (A') (A') (A') (A') (A') (A')
                 (A') (A") (A") (A') (A') (A') (A') (A') (A') (A')
                 (A") (A') (A') (A') (A") (A') (A') (A") (A") (A")
                 (A') (A') (A') (A') (A') (A') (A") (A") (A') (A')
                 (A') (A") (A') (A") (A") (A') (A') (A") (A') (A')
                 (A") (A') (A") (A") (A") (A') (A") (A') (A') (A')
                 (A') (A') (A') (A') (A') (A') (A') (A') (A") (A')
                 (A") (A") (A") (A") (A') (A") (A') (A') (A') (A')
                 (A') (A') (A') (A') (A') (A') (A') (A') (A') (A')
                 (A') (A') (A') (A') (A') (A') (A') (A') (A') (A")
                 (A") (A") (A") (A") (A') (A') (A') (A') (A') (A')
                 (A') (A') (A') (A') (A') (A') (A') (A') (A')
 ExpMin= 4.38D-02 ExpMax= 1.06D+05 ExpMxC= 3.62D+03 IAcc=3 IRadAn=         5 AccDes= 0.00D+00
 Harris functional with IExCor= 1009 and IRadAn=       5 diagonalized for initial guess.
 HarFok:  IExCor= 1009 AccDes= 0.00D+00 IRadAn=         5 IDoV= 1 UseB2=F ITyADJ=14
 ICtDFT=  3500011 ScaDFX=  1.000000  1.000000  1.000000  1.000000
 FoFCou: FMM=F IPFlag=           0 FMFlag=      100000 FMFlg1=           0
         NFxFlg=           0 DoJE=T BraDBF=F KetDBF=T FulRan=T
         wScrn=  0.000000 ICntrl=       500 IOpCl=  0 I1Cent=   200000004 NGrid=           0
         NMat0=    1 NMatS0=      1 NMatT0=    0 NMatD0=    1 NMtDS0=    0 NMtDT0=    0
 Petite list used in FoFCou.
 Requested convergence on RMS density matrix=1.00D-08 within 128 cycles.
 Requested convergence on MAX density matrix=1.00D-06.
 Requested convergence on             energy=1.00D-06.
 No special actions if energy rises.
 SCF Done:  E(RM062X) =  -2529.59836350     A.U. after   15 cycles
            NFock= 15  Conv=0.67D-08     -V/T= 2.0021
 Calling FoFJK, ICntrl=      2127 FMM=F ISym2X=1 I1Cent= 0 IOpClX= 0 NMat=1 NMatS=1 NMatT=0.
 ***** Axes restored to original set *****
 -------------------------------------------------------------------
 Center     Atomic                   Forces (Hartrees/Bohr)
 Number     Number              X              Y              Z
 -------------------------------------------------------------------
      1        6          -0.017577785   -0.019408701   -0.000000000
      2        6          -0.001581747   -0.001906556   -0.000000000
      3        6           0.006317993   -0.011088497   -0.000000000
      4        6           0.009569795    0.012033028    0.000000000
      5        6           0.007335184   -0.012095199   -0.000000000
      6        6          -0.000006034    0.017736930    0.000000000
      7       17           0.001494204   -0.008722030   -0.000000000
      8       17           0.025965195    0.017350851    0.000000000
      9       17           0.001825367    0.006394370    0.000000000
     10       17          -0.017663381   -0.007438178   -0.000000000
     11       17          -0.015678791    0.007143981   -0.000000000
 -------------------------------------------------------------------
 Cartesian Forces:  Max     0.025965195 RMS     0.010102069

 GradGradGradGradGradGradGradGradGradGradGradGradGradGradGradGradGradGrad
 Berny optimization.
 Using GEDIIS/GDIIS optimizer.
 FormGI is forming the generalized inverse of G from B-inverse, IUseBI=4.
 Internal  Forces:  Max     0.031178044 RMS     0.006656386
 Search for a local minimum.
 Step number   7 out of a maximum of   57
 All quantities printed in internal units (Hartrees-Bohrs-Radians)
 Mixed Optimization -- RFO/linear search
 Update second derivatives using D2CorX and points    6    7
 DE= -8.36D-03 DEPred=-6.97D-03 R= 1.20D+00
 TightC=F SS=  1.41D+00  RLast= 1.60D-01 DXNew= 2.4000D+00 4.7943D-01
 Trust test= 1.20D+00 RLast= 1.60D-01 DXMaxT set to 1.43D+00
 ITU=  1  1  1  0  0  1  0
 Use linear search instead of GDIIS.
     Eigenvalues ---    0.02237   0.02241   0.02246   0.02249   0.02253
     Eigenvalues ---    0.02262   0.02262   0.02262   0.17897   0.24861
     Eigenvalues ---    0.24997   0.25000   0.25000   0.25012   0.26179
     Eigenvalues ---    0.27131   0.30348   0.30999   0.41407   0.44616
     Eigenvalues ---    0.44775   0.47104   0.48083   0.57467   0.64811
     Eigenvalues ---   12.00111  12.00896
 RFO step:  Lambda=-3.83806049D-03 EMin= 2.23725823D-02
 Quartic linear search produced a step of  0.36974.
 Iteration  1 RMS(Cart)=  0.01910364 RMS(Int)=  0.00015771
 Iteration  2 RMS(Cart)=  0.00024217 RMS(Int)=  0.00005170
 Iteration  3 RMS(Cart)=  0.00000002 RMS(Int)=  0.00005170
 ClnCor:  largest displacement from symmetrization is 5.17D-11 for atom     7.
 Variable       Old X    -DE/DX   Delta X   Delta X   Delta X     New X
                                 (Linear)    (Quad)   (Total)
    R1        2.61465   0.00208   0.00493  -0.00801  -0.00307   2.61158
    R2        2.62294   0.00756   0.02469   0.00421   0.02897   2.65191
    R3        3.23547   0.03118   0.01442   0.03955   0.05397   3.28944
    R4        2.58601   0.00060   0.00976   0.00205   0.01174   2.59775
    R5        2.62101   0.00974   0.00838   0.01173   0.02004   2.64105
    R6        3.45456  -0.00644   0.00062  -0.02121  -0.02059   3.43397
    R7        2.64987  -0.00016   0.00931  -0.02059  -0.01129   2.63858
    R8        3.22680   0.01901   0.01397   0.03795   0.05191   3.27871
    R9        2.62402   0.00911   0.02146   0.00824   0.02977   2.65379
   R10        3.22432   0.01713   0.01393   0.03766   0.05159   3.27591
   R11        3.36675  -0.00875  -0.00214  -0.03542  -0.03756   3.32919
    A1        2.14897  -0.00067   0.00713   0.01362   0.02083   2.16980
    A2        2.06366   0.00315  -0.00429   0.01195   0.00762   2.07128
    A3        2.07056  -0.00248  -0.00284  -0.02557  -0.02845   2.04211
    A4        1.99436   0.00198   0.00531   0.00033   0.00554   1.99990
    A5        2.20527  -0.00053  -0.00819  -0.01259  -0.02091   2.18436
    A6        2.06184  -0.00256   0.00678  -0.00787  -0.00101   2.06083
    A7        2.01608   0.00308   0.00140   0.02045   0.02192   2.03800
    A8        2.04594   0.00027   0.00805   0.00845   0.01643   2.06237
    A9        2.14150   0.00386  -0.01972   0.01721  -0.00247   2.13903
   A10        2.09575  -0.00413   0.01167  -0.02567  -0.01396   2.08179
   A11        2.07361   0.00002   0.00352   0.00778   0.01137   2.08498
   A12        2.10557  -0.00290   0.01098  -0.01688  -0.00593   2.09964
   A13        2.10401   0.00288  -0.01450   0.00910  -0.00544   2.09857
   A14        2.09822  -0.00108  -0.01582  -0.01759  -0.03326   2.06496
   A15        2.12480  -0.00177   0.01053  -0.00332   0.00713   2.13193
   A16        2.06017   0.00285   0.00529   0.02091   0.02612   2.08629
    D1       -0.00000   0.00000   0.00000  -0.00000   0.00000   0.00000
    D2        3.14159  -0.00000   0.00000  -0.00000   0.00000   3.14159
    D3        0.00000   0.00000   0.00000   0.00000   0.00000   0.00000
    D4        3.14159  -0.00000   0.00000   0.00000   0.00000   3.14159
    D5        3.14159   0.00000   0.00000   0.00000   0.00000   3.14159
    D6       -0.00000  -0.00000   0.00000   0.00000   0.00000   0.00000
    D7        0.00000   0.00000   0.00000   0.00000   0.00000   0.00000
    D8        3.14159  -0.00000   0.00000  -0.00000   0.00000   3.14159
    D9       -0.00000   0.00000   0.00000   0.00000   0.00000   0.00000
   D10        3.14159   0.00000   0.00000  -0.00000   0.00000   3.14159
   D11        3.14159  -0.00000   0.00000   0.00000   0.00000   3.14159
   D12        0.00000  -0.00000   0.00000   0.00000   0.00000   0.00000
   D13        0.00000  -0.00000   0.00000  -0.00000   0.00000   0.00000
   D14        3.14159   0.00000   0.00000  -0.00000   0.00000   3.14159
   D15        3.14159  -0.00000   0.00000   0.00000   0.00000   3.14159
   D16       -0.00000   0.00000   0.00000   0.00000   0.00000   0.00000
   D17       -0.00000  -0.00000   0.00000  -0.00000   0.00000   0.00000
   D18        3.14159   0.00000   0.00000   0.00000   0.00000   3.14159
   D19        3.14159  -0.00000   0.00000   0.00000   0.00000   3.14159
   D20       -0.00000   0.00000   0.00000   0.00000   0.00000   0.00000
         Item               Value     Threshold  Converged?
 Maximum Force            0.031178     0.000450     NO 
 RMS     Force            0.006656     0.000300     NO 
 Maximum Displacement     0.063744     0.001800     NO 
 RMS     Displacement     0.019045     0.001200     NO 
 Predicted change in Energy=-2.439624D-03
 GradGradGradGradGradGradGradGradGradGradGradGradGradGradGradGradGradGrad

                          Input orientation:                          
 ---------------------------------------------------------------------
 Center     Atomic      Atomic             Coordinates (Angstroms)
 Number     Number       Type             X           Y           Z
 ---------------------------------------------------------------------
      1          6           0        1.245477    0.627908    0.000000
      2          6           0        1.303308   -0.752869   -0.000000
      3          6           0        0.078295   -1.376618   -0.000000
      4          6           0       -1.157279   -0.723480   -0.000000
      5          6           0       -1.164686    0.672777    0.000000
      6          6           0        0.054370    1.369935    0.000000
      7         17           0        0.047333    3.131652    0.000000
      8         17           0        2.736388    1.526358    0.000000
      9         17           0        0.043651   -3.193466   -0.000000
     10         17           0       -2.666147   -1.579991   -0.000000
     11         17           0       -2.666027    1.539453    0.000000
 ---------------------------------------------------------------------
                    Distance matrix (angstroms):
                    1          2          3          4          5
     1  C    0.000000
     2  C    1.381988   0.000000
     3  C    2.319577   1.374670   0.000000
     4  C    2.756716   2.460763   1.397581   0.000000
     5  C    2.410581   2.850169   2.396878   1.396277   0.000000
     6  C    1.403332   2.462955   2.746658   2.418777   1.404324
     7  Cl   2.775659   4.082520   4.508376   4.038952   2.741360
     8  Cl   1.740698   2.692321   3.936080   4.496934   3.993367
     9  Cl   4.005907   2.746498   1.817179   2.746464   4.050669
    10  Cl   4.491727   4.054713   2.751967   1.735019   2.707277
    11  Cl   4.016314   4.583706   4.004345   2.719777   1.733537
                    6          7          8          9         10
     6  C    0.000000
     7  Cl   1.761730   0.000000
     8  Cl   2.686576   3.131770   0.000000
     9  Cl   4.563414   6.325119   5.433928   0.000000
    10  Cl   4.012889   5.437145   6.231916   3.153776   0.000000
    11  Cl   2.725673   3.146017   5.402431   5.453704   3.119444
                   11
    11  Cl   0.000000
 Stoichiometry    C6Cl5(1-)
 Framework group  CS[SG(C6Cl5)]
 Deg. of freedom    19
 Full point group                 CS      NOp   2
 Largest Abelian subgroup         CS      NOp   2
 Largest concise Abelian subgroup C1      NOp   1
                         Standard orientation:                         
 ---------------------------------------------------------------------
 Center     Atomic      Atomic             Coordinates (Angstroms)
 Number     Number       Type             X           Y           Z
 ---------------------------------------------------------------------
      1          6           0       -1.170420    1.147175    0.000000
      2          6           0       -0.005024    1.889968    0.000000
      3          6           0        1.149153    1.143246    0.000000
      4          6           0        1.204086   -0.253255   -0.000000
      5          6           0       -0.000000   -0.960197   -0.000000
      6          6           0       -1.214690   -0.255459    0.000000
      7         17           0       -2.735094   -1.145438    0.000000
      8         17           0       -2.695629    1.986083    0.000000
      9         17           0        2.738161    2.024832    0.000000
     10         17           0        2.702026   -1.128738   -0.000000
     11         17           0        0.003558   -2.693730   -0.000000
 ---------------------------------------------------------------------
 Rotational constants (GHZ):           0.7095724           0.4591153           0.2787533
 Standard basis: 6-311++G(d,p) (5D, 7F)
 There are   217 symmetry adapted cartesian basis functions of A'  symmetry.
 There are    76 symmetry adapted cartesian basis functions of A"  symmetry.
 There are   206 symmetry adapted basis functions of A'  symmetry.
 There are    76 symmetry adapted basis functions of A"  symmetry.
   282 basis functions,   481 primitive gaussians,   293 cartesian basis functions
    61 alpha electrons       61 beta electrons
       nuclear repulsion energy      1051.5726645692 Hartrees.
 NAtoms=   11 NActive=   11 NUniq=   11 SFac= 1.00D+00 NAtFMM=   60 NAOKFM=F Big=F
 Integral buffers will be    131072 words long.
 Raffenetti 2 integral format.
 Two-electron integral symmetry is turned on.
 One-electron integrals computed using PRISM.
 NBasis=   282 RedAO= T EigKep=  1.92D-06  NBF=   206    76
 NBsUse=   280 1.00D-06 EigRej=  6.88D-07 NBFU=   204    76
 Initial guess from the checkpoint file:  "frequency_chks/Hexachlorobenzene_anion_product_Freq.chk"
 B after Tr=    -0.000000    0.000000    0.000000
         Rot=    0.999997   -0.000000    0.000000    0.002600 Ang=   0.30 deg.
 Initial guess orbital symmetries:
       Occupied  (A') (A') (A') (A') (A') (A') (A') (A') (A') (A')
                 (A') (A') (A') (A') (A') (A') (A') (A") (A') (A')
                 (A') (A") (A') (A") (A') (A') (A") (A') (A') (A")
                 (A') (A') (A') (A') (A') (A') (A') (A') (A') (A')
                 (A') (A') (A') (A') (A") (A') (A') (A") (A') (A")
                 (A') (A') (A") (A") (A') (A') (A") (A') (A") (A")
                 (A')
       Virtual   (A') (A') (A') (A") (A') (A") (A') (A') (A") (A')
                 (A") (A') (A") (A') (A') (A') (A") (A") (A') (A')
                 (A') (A") (A') (A') (A') (A") (A') (A') (A") (A')
                 (A") (A') (A') (A') (A') (A") (A") (A') (A') (A")
                 (A') (A') (A') (A') (A') (A') (A') (A') (A') (A')
                 (A') (A') (A') (A') (A') (A") (A') (A') (A") (A')
                 (A") (A') (A') (A') (A') (A") (A") (A') (A') (A')
                 (A") (A') (A") (A") (A') (A") (A") (A') (A') (A')
                 (A") (A') (A') (A') (A") (A') (A') (A") (A') (A")
                 (A') (A') (A") (A') (A') (A") (A") (A') (A") (A")
                 (A') (A') (A") (A') (A') (A') (A') (A') (A') (A')
                 (A') (A") (A') (A") (A') (A') (A') (A') (A') (A')
                 (A') (A") (A') (A") (A') (A') (A") (A') (A") (A")
                 (A') (A') (A') (A') (A') (A') (A") (A") (A') (A')
                 (A') (A') (A") (A") (A") (A') (A') (A') (A") (A')
                 (A') (A") (A") (A") (A") (A') (A") (A') (A') (A')
                 (A') (A') (A') (A') (A') (A') (A') (A') (A") (A')
                 (A") (A") (A") (A") (A') (A") (A') (A') (A') (A')
                 (A') (A') (A') (A') (A') (A') (A') (A') (A') (A')
                 (A') (A') (A') (A') (A') (A') (A') (A') (A') (A")
                 (A") (A") (A") (A") (A') (A') (A') (A') (A') (A')
                 (A') (A') (A') (A') (A') (A') (A') (A') (A')
 ExpMin= 4.38D-02 ExpMax= 1.06D+05 ExpMxC= 3.62D+03 IAcc=3 IRadAn=         5 AccDes= 0.00D+00
 Harris functional with IExCor= 1009 and IRadAn=       5 diagonalized for initial guess.
 HarFok:  IExCor= 1009 AccDes= 0.00D+00 IRadAn=         5 IDoV= 1 UseB2=F ITyADJ=14
 ICtDFT=  3500011 ScaDFX=  1.000000  1.000000  1.000000  1.000000
 FoFCou: FMM=F IPFlag=           0 FMFlag=      100000 FMFlg1=           0
         NFxFlg=           0 DoJE=T BraDBF=F KetDBF=T FulRan=T
         wScrn=  0.000000 ICntrl=       500 IOpCl=  0 I1Cent=   200000004 NGrid=           0
         NMat0=    1 NMatS0=      1 NMatT0=    0 NMatD0=    1 NMtDS0=    0 NMtDT0=    0
 Petite list used in FoFCou.
 Requested convergence on RMS density matrix=1.00D-08 within 128 cycles.
 Requested convergence on MAX density matrix=1.00D-06.
 Requested convergence on             energy=1.00D-06.
 No special actions if energy rises.
 SCF Done:  E(RM062X) =  -2529.60137510     A.U. after   14 cycles
            NFock= 14  Conv=0.90D-08     -V/T= 2.0022
 Calling FoFJK, ICntrl=      2127 FMM=F ISym2X=1 I1Cent= 0 IOpClX= 0 NMat=1 NMatS=1 NMatT=0.
 ***** Axes restored to original set *****
 -------------------------------------------------------------------
 Center     Atomic                   Forces (Hartrees/Bohr)
 Number     Number              X              Y              Z
 -------------------------------------------------------------------
      1        6          -0.018619930   -0.006774945   -0.000000000
      2        6          -0.004010350   -0.001157437   -0.000000000
      3        6           0.003472545   -0.001100207    0.000000000
      4        6           0.005503771   -0.000926806    0.000000000
      5        6           0.007116372    0.003828401    0.000000000
      6        6          -0.000058834   -0.003445609   -0.000000000
      7       17          -0.001227516   -0.005267589   -0.000000000
      8       17           0.016525098    0.009378952    0.000000000
      9       17          -0.000586986    0.006687619    0.000000000
     10       17          -0.005513336   -0.003252500   -0.000000000
     11       17          -0.002600835    0.002030122    0.000000000
 -------------------------------------------------------------------
 Cartesian Forces:  Max     0.018619930 RMS     0.005556451

 GradGradGradGradGradGradGradGradGradGradGradGradGradGradGradGradGradGrad
 Berny optimization.
 Using GEDIIS/GDIIS optimizer.
 FormGI is forming the generalized inverse of G from B-inverse, IUseBI=4.
 Internal  Forces:  Max     0.018994028 RMS     0.003572319
 Search for a local minimum.
 Step number   8 out of a maximum of   57
 All quantities printed in internal units (Hartrees-Bohrs-Radians)
 Mixed Optimization -- RFO/linear search
 Update second derivatives using D2CorX and points    6    7    8
 DE= -3.01D-03 DEPred=-2.44D-03 R= 1.23D+00
 TightC=F SS=  1.41D+00  RLast= 1.31D-01 DXNew= 2.4000D+00 3.9414D-01
 Trust test= 1.23D+00 RLast= 1.31D-01 DXMaxT set to 1.43D+00
 ITU=  1  1  1  1  0  0  1  0
 Use linear search instead of GDIIS.
     Eigenvalues ---    0.02237   0.02241   0.02246   0.02249   0.02252
     Eigenvalues ---    0.02262   0.02262   0.02262   0.14378   0.24702
     Eigenvalues ---    0.24997   0.25000   0.25008   0.25163   0.25592
     Eigenvalues ---    0.29287   0.29766   0.31087   0.40802   0.43904
     Eigenvalues ---    0.45037   0.47601   0.49361   0.51164   0.70377
     Eigenvalues ---   11.99025  12.00938
 RFO step:  Lambda=-1.12729372D-03 EMin= 2.23720061D-02
 Quartic linear search produced a step of  0.29512.
 Iteration  1 RMS(Cart)=  0.01213811 RMS(Int)=  0.00004655
 Iteration  2 RMS(Cart)=  0.00007250 RMS(Int)=  0.00000857
 Iteration  3 RMS(Cart)=  0.00000000 RMS(Int)=  0.00000857
 ClnCor:  largest displacement from symmetrization is 4.16D-11 for atom     7.
 Variable       Old X    -DE/DX   Delta X   Delta X   Delta X     New X
                                 (Linear)    (Quad)   (Total)
    R1        2.61158  -0.00125  -0.00091  -0.00639  -0.00729   2.60429
    R2        2.65191  -0.00424   0.00855  -0.00639   0.00217   2.65408
    R3        3.28944   0.01899   0.01593   0.02060   0.03653   3.32597
    R4        2.59775  -0.00420   0.00346  -0.00617  -0.00272   2.59503
    R5        2.64105  -0.00204   0.00591  -0.00823  -0.00233   2.63872
    R6        3.43397  -0.00667  -0.00608  -0.02358  -0.02966   3.40431
    R7        2.63858   0.00097  -0.00333  -0.00011  -0.00344   2.63514
    R8        3.27871   0.00640   0.01532   0.01909   0.03441   3.31312
    R9        2.65379  -0.00580   0.00879  -0.01254  -0.00374   2.65005
   R10        3.27591   0.00327   0.01523   0.01874   0.03396   3.30987
   R11        3.32919  -0.00526  -0.01108  -0.01979  -0.03087   3.29831
    A1        2.16980  -0.00147   0.00615  -0.00057   0.00559   2.17539
    A2        2.07128  -0.00009   0.00225  -0.00448  -0.00224   2.06904
    A3        2.04211   0.00156  -0.00840   0.00505  -0.00336   2.03875
    A4        1.99990  -0.00016   0.00163  -0.00139   0.00023   2.00014
    A5        2.18436   0.00166  -0.00617   0.00319  -0.00301   2.18135
    A6        2.06083   0.00041  -0.00030   0.00629   0.00601   2.06683
    A7        2.03800  -0.00207   0.00647  -0.00948  -0.00300   2.03500
    A8        2.06237  -0.00210   0.00485  -0.00383   0.00101   2.06338
    A9        2.13903   0.00088  -0.00073  -0.00784  -0.00856   2.13047
   A10        2.08179   0.00121  -0.00412   0.01166   0.00755   2.08934
   A11        2.08498  -0.00058   0.00336   0.00086   0.00423   2.08921
   A12        2.09964   0.00105  -0.00175   0.01096   0.00920   2.10884
   A13        2.09857  -0.00047  -0.00161  -0.01182  -0.01343   2.08514
   A14        2.06496   0.00265  -0.00982   0.00173  -0.00806   2.05690
   A15        2.13193   0.00074   0.00211   0.01150   0.01359   2.14552
   A16        2.08629  -0.00339   0.00771  -0.01323  -0.00553   2.08076
    D1       -0.00000  -0.00000   0.00000  -0.00000   0.00000   0.00000
    D2        3.14159  -0.00000   0.00000   0.00000   0.00000   3.14159
    D3        0.00000   0.00000   0.00000   0.00000  -0.00000   0.00000
    D4        3.14159   0.00000   0.00000   0.00000   0.00000   3.14159
    D5        3.14159   0.00000   0.00000   0.00000   0.00000   3.14159
    D6       -0.00000   0.00000   0.00000   0.00000   0.00000   0.00000
    D7        0.00000  -0.00000   0.00000  -0.00000  -0.00000   0.00000
    D8        3.14159  -0.00000   0.00000  -0.00000   0.00000   3.14159
    D9       -0.00000   0.00000   0.00000   0.00000   0.00000   0.00000
   D10        3.14159   0.00000   0.00000   0.00000   0.00000   3.14159
   D11        3.14159   0.00000   0.00000   0.00000   0.00000   3.14159
   D12       -0.00000   0.00000   0.00000   0.00000   0.00000   0.00000
   D13        0.00000  -0.00000   0.00000  -0.00000  -0.00000   0.00000
   D14        3.14159  -0.00000   0.00000  -0.00000   0.00000   3.14159
   D15        3.14159   0.00000   0.00000  -0.00000   0.00000   3.14159
   D16       -0.00000  -0.00000   0.00000  -0.00000   0.00000   0.00000
   D17        0.00000  -0.00000   0.00000  -0.00000   0.00000   0.00000
   D18        3.14159  -0.00000   0.00000  -0.00000   0.00000   3.14159
   D19        3.14159  -0.00000   0.00000  -0.00000   0.00000   3.14159
   D20        0.00000  -0.00000   0.00000  -0.00000   0.00000   0.00000
         Item               Value     Threshold  Converged?
 Maximum Force            0.018994     0.000450     NO 
 RMS     Force            0.003572     0.000300     NO 
 Maximum Displacement     0.041661     0.001800     NO 
 RMS     Displacement     0.012154     0.001200     NO 
 Predicted change in Energy=-6.977566D-04
 GradGradGradGradGradGradGradGradGradGradGradGradGradGradGradGradGradGrad

                          Input orientation:                          
 ---------------------------------------------------------------------
 Center     Atomic      Atomic             Coordinates (Angstroms)
 Number     Number       Type             X           Y           Z
 ---------------------------------------------------------------------
      1          6           0        1.244138    0.623623    0.000000
      2          6           0        1.303387   -0.753231   -0.000000
      3          6           0        0.080517   -1.378018   -0.000000
      4          6           0       -1.152909   -0.723452   -0.000000
      5          6           0       -1.159446    0.670987    0.000000
      6          6           0        0.055371    1.371553    0.000000
      7         17           0        0.032442    3.116795    0.000000
      8         17           0        2.752596    1.530402    0.000000
      9         17           0        0.037840   -3.178998   -0.000000
     10         17           0       -2.671573   -1.599503   -0.000000
     11         17           0       -2.667681    1.561499    0.000000
 ---------------------------------------------------------------------
                    Distance matrix (angstroms):
                    1          2          3          4          5
     1  C    0.000000
     2  C    1.378129   0.000000
     3  C    2.315293   1.373233   0.000000
     4  C    2.749626   2.456476   1.396351   0.000000
     5  C    2.404051   2.844986   2.394981   1.394454   0.000000
     6  C    1.404481   2.464194   2.749687   2.418468   1.402346
     7  Cl   2.772024   4.073378   4.495071   4.019024   2.720767
     8  Cl   1.760027   2.704661   3.949546   4.509193   4.005330
     9  Cl   3.989371   2.736047   1.801485   2.729027   4.031858
    10  Cl   4.502786   4.064048   2.760988   1.753228   2.727939
    11  Cl   4.022678   4.596450   4.024097   2.741448   1.751509
                    6          7          8          9         10
     6  C    0.000000
     7  Cl   1.745393   0.000000
     8  Cl   2.701898   3.148949   0.000000
     9  Cl   4.550585   6.295795   5.435839   0.000000
    10  Cl   4.032791   5.436466   6.262421   3.136196   0.000000
    11  Cl   2.729669   3.116024   5.420366   5.458219   3.161005
                   11
    11  Cl   0.000000
 Stoichiometry    C6Cl5(1-)
 Framework group  CS[SG(C6Cl5)]
 Deg. of freedom    19
 Full point group                 CS      NOp   2
 Largest Abelian subgroup         CS      NOp   2
 Largest concise Abelian subgroup C1      NOp   1
                         Standard orientation:                         
 ---------------------------------------------------------------------
 Center     Atomic      Atomic             Coordinates (Angstroms)
 Number     Number       Type             X           Y           Z
 ---------------------------------------------------------------------
      1          6           0       -1.167434    1.147987    0.000000
      2          6           0       -0.007016    1.891403    0.000000
      3          6           0        1.147859    1.148414    0.000000
      4          6           0        1.202119   -0.246883   -0.000000
      5          6           0       -0.000000   -0.953574   -0.000000
      6          6           0       -1.216333   -0.255642    0.000000
      7         17           0       -2.713459   -1.152866    0.000000
      8         17           0       -2.709650    1.996081    0.000000
      9         17           0        2.726149    2.016946    0.000000
     10         17           0        2.722904   -1.119248   -0.000000
     11         17           0       -0.011543   -2.705045   -0.000000
 ---------------------------------------------------------------------
 Rotational constants (GHZ):           0.7072029           0.4591201           0.2783886
 Standard basis: 6-311++G(d,p) (5D, 7F)
 There are   217 symmetry adapted cartesian basis functions of A'  symmetry.
 There are    76 symmetry adapted cartesian basis functions of A"  symmetry.
 There are   206 symmetry adapted basis functions of A'  symmetry.
 There are    76 symmetry adapted basis functions of A"  symmetry.
   282 basis functions,   481 primitive gaussians,   293 cartesian basis functions
    61 alpha electrons       61 beta electrons
       nuclear repulsion energy      1050.6858291229 Hartrees.
 NAtoms=   11 NActive=   11 NUniq=   11 SFac= 1.00D+00 NAtFMM=   60 NAOKFM=F Big=F
 Integral buffers will be    131072 words long.
 Raffenetti 2 integral format.
 Two-electron integral symmetry is turned on.
 One-electron integrals computed using PRISM.
 NBasis=   282 RedAO= T EigKep=  1.91D-06  NBF=   206    76
 NBsUse=   280 1.00D-06 EigRej=  6.89D-07 NBFU=   204    76
 Initial guess from the checkpoint file:  "frequency_chks/Hexachlorobenzene_anion_product_Freq.chk"
 B after Tr=     0.000000   -0.000000    0.000000
         Rot=    1.000000    0.000000   -0.000000   -0.000597 Ang=  -0.07 deg.
 Initial guess orbital symmetries:
       Occupied  (A') (A') (A') (A') (A') (A') (A') (A') (A') (A')
                 (A') (A') (A') (A') (A') (A') (A') (A") (A') (A')
                 (A') (A") (A") (A') (A') (A') (A") (A') (A') (A")
                 (A') (A') (A') (A') (A') (A') (A') (A') (A') (A')
                 (A') (A') (A') (A') (A") (A') (A') (A") (A') (A")
                 (A') (A') (A") (A") (A') (A') (A") (A') (A") (A")
                 (A')
       Virtual   (A') (A') (A') (A") (A') (A") (A') (A') (A") (A')
                 (A") (A') (A") (A') (A') (A') (A") (A") (A') (A')
                 (A') (A") (A') (A') (A') (A') (A") (A') (A") (A')
                 (A") (A') (A') (A') (A') (A") (A") (A') (A') (A")
                 (A') (A') (A') (A') (A') (A') (A') (A') (A') (A')
                 (A') (A') (A') (A') (A') (A") (A') (A') (A") (A')
                 (A') (A") (A') (A') (A') (A") (A') (A") (A') (A')
                 (A") (A') (A") (A") (A') (A") (A") (A') (A') (A')
                 (A") (A') (A') (A') (A") (A') (A') (A") (A') (A")
                 (A') (A') (A") (A') (A") (A') (A") (A') (A") (A")
                 (A') (A') (A') (A") (A') (A') (A') (A') (A') (A')
                 (A') (A") (A') (A") (A') (A') (A') (A') (A') (A')
                 (A') (A") (A') (A") (A') (A') (A") (A') (A") (A")
                 (A') (A') (A') (A') (A') (A') (A") (A") (A') (A')
                 (A') (A') (A") (A") (A") (A') (A') (A') (A") (A')
                 (A') (A") (A") (A") (A') (A") (A") (A') (A') (A')
                 (A') (A') (A') (A') (A') (A') (A') (A') (A") (A')
                 (A") (A") (A") (A') (A") (A") (A') (A') (A') (A')
                 (A') (A') (A') (A') (A') (A') (A') (A') (A') (A')
                 (A') (A') (A') (A') (A') (A') (A') (A') (A') (A")
                 (A") (A") (A") (A") (A') (A') (A') (A') (A') (A')
                 (A') (A') (A') (A') (A') (A') (A') (A') (A')
 ExpMin= 4.38D-02 ExpMax= 1.06D+05 ExpMxC= 3.62D+03 IAcc=3 IRadAn=         5 AccDes= 0.00D+00
 Harris functional with IExCor= 1009 and IRadAn=       5 diagonalized for initial guess.
 HarFok:  IExCor= 1009 AccDes= 0.00D+00 IRadAn=         5 IDoV= 1 UseB2=F ITyADJ=14
 ICtDFT=  3500011 ScaDFX=  1.000000  1.000000  1.000000  1.000000
 FoFCou: FMM=F IPFlag=           0 FMFlag=      100000 FMFlg1=           0
         NFxFlg=           0 DoJE=T BraDBF=F KetDBF=T FulRan=T
         wScrn=  0.000000 ICntrl=       500 IOpCl=  0 I1Cent=   200000004 NGrid=           0
         NMat0=    1 NMatS0=      1 NMatT0=    0 NMatD0=    1 NMtDS0=    0 NMtDT0=    0
 Petite list used in FoFCou.
 Requested convergence on RMS density matrix=1.00D-08 within 128 cycles.
 Requested convergence on MAX density matrix=1.00D-06.
 Requested convergence on             energy=1.00D-06.
 No special actions if energy rises.
 SCF Done:  E(RM062X) =  -2529.60211298     A.U. after   15 cycles
            NFock= 15  Conv=0.30D-08     -V/T= 2.0022
 Calling FoFJK, ICntrl=      2127 FMM=F ISym2X=1 I1Cent= 0 IOpClX= 0 NMat=1 NMatS=1 NMatT=0.
 ***** Axes restored to original set *****
 -------------------------------------------------------------------
 Center     Atomic                   Forces (Hartrees/Bohr)
 Number     Number              X              Y              Z
 -------------------------------------------------------------------
      1        6          -0.013360681   -0.002212711   -0.000000000
      2        6          -0.001399289   -0.000205416   -0.000000000
      3        6           0.001020711    0.000183657    0.000000000
      4        6          -0.001210006   -0.003823751   -0.000000000
      5        6          -0.000735466    0.007188269    0.000000000
      6        6           0.001131303   -0.008225068   -0.000000000
      7       17           0.001074365    0.000932425    0.000000000
      8       17           0.010015964    0.006211699    0.000000000
      9       17           0.000428909    0.001769948    0.000000000
     10       17           0.000259544    0.002455718    0.000000000
     11       17           0.002774646   -0.004274769   -0.000000000
 -------------------------------------------------------------------
 Cartesian Forces:  Max     0.013360681 RMS     0.003892588

 GradGradGradGradGradGradGradGradGradGradGradGradGradGradGradGradGradGrad
 Berny optimization.
 Using GEDIIS/GDIIS optimizer.
 FormGI is forming the generalized inverse of G from B-inverse, IUseBI=4.
 Internal  Forces:  Max     0.011783784 RMS     0.002388723
 Search for a local minimum.
 Step number   9 out of a maximum of   57
 All quantities printed in internal units (Hartrees-Bohrs-Radians)
 Mixed Optimization -- RFO/linear search
 Update second derivatives using D2CorX and points    6    7    8    9
 DE= -7.38D-04 DEPred=-6.98D-04 R= 1.06D+00
 TightC=F SS=  1.41D+00  RLast= 8.00D-02 DXNew= 2.4000D+00 2.3994D-01
 Trust test= 1.06D+00 RLast= 8.00D-02 DXMaxT set to 1.43D+00
 ITU=  1  1  1  1  1  0  0  1  0
 Use linear search instead of GDIIS.
     Eigenvalues ---    0.02237   0.02241   0.02246   0.02249   0.02252
     Eigenvalues ---    0.02262   0.02262   0.02262   0.14534   0.23828
     Eigenvalues ---    0.24997   0.25005   0.25098   0.25148   0.25578
     Eigenvalues ---    0.28261   0.30807   0.34921   0.38614   0.42629
     Eigenvalues ---    0.45214   0.47300   0.48693   0.51396   0.65482
     Eigenvalues ---   11.94742  12.00893
 RFO step:  Lambda=-2.82150754D-04 EMin= 2.23711147D-02
 Quartic linear search produced a step of  0.03856.
 Iteration  1 RMS(Cart)=  0.00677438 RMS(Int)=  0.00002630
 Iteration  2 RMS(Cart)=  0.00003304 RMS(Int)=  0.00000019
 Iteration  3 RMS(Cart)=  0.00000000 RMS(Int)=  0.00000019
 ClnCor:  largest displacement from symmetrization is 2.67D-12 for atom    10.
 Variable       Old X    -DE/DX   Delta X   Delta X   Delta X     New X
                                 (Linear)    (Quad)   (Total)
    R1        2.60429  -0.00038  -0.00028  -0.00026  -0.00054   2.60375
    R2        2.65408  -0.00543   0.00008  -0.00708  -0.00700   2.64709
    R3        3.32597   0.01178   0.00141   0.00765   0.00906   3.33503
    R4        2.59503  -0.00120  -0.00010  -0.00095  -0.00106   2.59398
    R5        2.63872  -0.00031  -0.00009   0.00088   0.00079   2.63951
    R6        3.40431  -0.00178  -0.00114  -0.00814  -0.00929   3.39503
    R7        2.63514  -0.00002  -0.00013   0.00308   0.00295   2.63809
    R8        3.31312  -0.00145   0.00133   0.00629   0.00762   3.32074
    R9        2.65005  -0.00274  -0.00014  -0.00257  -0.00271   2.64734
   R10        3.30987  -0.00456   0.00131   0.00598   0.00729   3.31716
   R11        3.29831   0.00092  -0.00119   0.00072  -0.00047   3.29785
    A1        2.17539  -0.00032   0.00022  -0.00130  -0.00108   2.17431
    A2        2.06904   0.00042  -0.00009   0.00065   0.00057   2.06961
    A3        2.03875  -0.00010  -0.00013   0.00065   0.00052   2.03927
    A4        2.00014   0.00012   0.00001   0.00185   0.00186   2.00199
    A5        2.18135  -0.00030  -0.00012  -0.00113  -0.00125   2.18010
    A6        2.06683  -0.00049   0.00023  -0.00008   0.00015   2.06699
    A7        2.03500   0.00079  -0.00012   0.00121   0.00109   2.03610
    A8        2.06338  -0.00097   0.00004  -0.00182  -0.00178   2.06160
    A9        2.13047   0.00381  -0.00033   0.00938   0.00905   2.13952
   A10        2.08934  -0.00284   0.00029  -0.00756  -0.00727   2.08207
   A11        2.08921  -0.00023   0.00016  -0.00049  -0.00033   2.08888
   A12        2.10884  -0.00363   0.00035  -0.01043  -0.01008   2.09876
   A13        2.08514   0.00386  -0.00052   0.01092   0.01041   2.09554
   A14        2.05690   0.00169  -0.00031   0.00290   0.00259   2.05949
   A15        2.14552  -0.00265   0.00052  -0.00649  -0.00597   2.13956
   A16        2.08076   0.00096  -0.00021   0.00359   0.00338   2.08414
    D1        0.00000   0.00000   0.00000   0.00000   0.00000   0.00000
    D2        3.14159  -0.00000   0.00000   0.00000   0.00000   3.14159
    D3       -0.00000   0.00000   0.00000   0.00000   0.00000   0.00000
    D4        3.14159  -0.00000   0.00000   0.00000   0.00000   3.14159
    D5        3.14159   0.00000   0.00000  -0.00000   0.00000   3.14159
    D6       -0.00000  -0.00000   0.00000  -0.00000   0.00000   0.00000
    D7       -0.00000  -0.00000   0.00000  -0.00000   0.00000   0.00000
    D8        3.14159   0.00000   0.00000  -0.00000   0.00000   3.14159
    D9        0.00000  -0.00000   0.00000   0.00000  -0.00000   0.00000
   D10        3.14159  -0.00000   0.00000   0.00000   0.00000   3.14159
   D11        3.14159   0.00000   0.00000   0.00000   0.00000   3.14159
   D12       -0.00000   0.00000   0.00000   0.00000   0.00000   0.00000
   D13       -0.00000   0.00000   0.00000  -0.00000   0.00000   0.00000
   D14        3.14159   0.00000   0.00000   0.00000   0.00000   3.14159
   D15        3.14159   0.00000   0.00000  -0.00000   0.00000   3.14159
   D16        0.00000   0.00000   0.00000  -0.00000   0.00000   0.00000
   D17        0.00000   0.00000   0.00000  -0.00000   0.00000   0.00000
   D18        3.14159  -0.00000   0.00000  -0.00000   0.00000   3.14159
   D19        3.14159  -0.00000   0.00000  -0.00000   0.00000   3.14159
   D20       -0.00000  -0.00000   0.00000  -0.00000   0.00000   0.00000
         Item               Value     Threshold  Converged?
 Maximum Force            0.011784     0.000450     NO 
 RMS     Force            0.002389     0.000300     NO 
 Maximum Displacement     0.022229     0.001800     NO 
 RMS     Displacement     0.006790     0.001200     NO 
 Predicted change in Energy=-1.421166D-04
 GradGradGradGradGradGradGradGradGradGradGradGradGradGradGradGradGradGrad

                          Input orientation:                          
 ---------------------------------------------------------------------
 Center     Atomic      Atomic             Coordinates (Angstroms)
 Number     Number       Type             X           Y           Z
 ---------------------------------------------------------------------
      1          6           0        1.243357    0.624539    0.000000
      2          6           0        1.302748   -0.752023   -0.000000
      3          6           0        0.081608   -1.378960   -0.000000
      4          6           0       -1.152658   -0.725083   -0.000000
      5          6           0       -1.157716    0.670922    0.000000
      6          6           0        0.056833    1.369080    0.000000
      7         17           0        0.042234    3.114164    0.000000
      8         17           0        2.755305    1.534815    0.000000
      9         17           0        0.042304   -3.175100   -0.000000
     10         17           0       -2.682080   -1.590431   -0.000000
     11         17           0       -2.677254    1.549736    0.000000
 ---------------------------------------------------------------------
                    Distance matrix (angstroms):
                    1          2          3          4          5
     1  C    0.000000
     2  C    1.377843   0.000000
     3  C    2.315960   1.372674   0.000000
     4  C    2.749976   2.455554   1.396770   0.000000
     5  C    2.401521   2.842298   2.395399   1.396015   0.000000
     6  C    1.400778   2.459956   2.748151   2.418344   1.400911
     7  Cl   2.764223   4.066485   4.493296   4.020894   2.722005
     8  Cl   1.764820   2.709160   3.954585   4.514346   4.007249
     9  Cl   3.984945   2.731304   1.796570   2.725898   4.028888
    10  Cl   4.507232   4.072073   2.771766   1.757258   2.727160
    11  Cl   4.028297   4.597664   4.023503   2.738466   1.755366
                    6          7          8          9         10
     6  C    0.000000
     7  Cl   1.745145   0.000000
     8  Cl   2.703557   3.139283   0.000000
     9  Cl   4.544203   6.289264   5.435409   0.000000
    10  Cl   4.032412   5.436460   6.271548   3.151737   0.000000
    11  Cl   2.740049   3.137363   5.432579   5.451612   3.140171
                   11
    11  Cl   0.000000
 Stoichiometry    C6Cl5(1-)
 Framework group  CS[SG(C6Cl5)]
 Deg. of freedom    19
 Full point group                 CS      NOp   2
 Largest Abelian subgroup         CS      NOp   2
 Largest concise Abelian subgroup C1      NOp   1
                         Standard orientation:                         
 ---------------------------------------------------------------------
 Center     Atomic      Atomic             Coordinates (Angstroms)
 Number     Number       Type             X           Y           Z
 ---------------------------------------------------------------------
      1          6           0       -1.168610    1.146348   -0.000000
      2          6           0       -0.009079    1.890619   -0.000000
      3          6           0        1.147345    1.151081   -0.000000
      4          6           0        1.203682   -0.244553    0.000000
      5          6           0       -0.000000   -0.951664    0.000000
      6          6           0       -1.214645   -0.253674    0.000000
      7         17           0       -2.715148   -1.144755    0.000000
      8         17           0       -2.716246    1.994528   -0.000000
      9         17           0        2.719097    2.021288   -0.000000
     10         17           0        2.721293   -1.130448    0.000000
     11         17           0        0.005582   -2.707022    0.000000
 ---------------------------------------------------------------------
 Rotational constants (GHZ):           0.7061961           0.4591873           0.2782572
 Standard basis: 6-311++G(d,p) (5D, 7F)
 There are   217 symmetry adapted cartesian basis functions of A'  symmetry.
 There are    76 symmetry adapted cartesian basis functions of A"  symmetry.
 There are   206 symmetry adapted basis functions of A'  symmetry.
 There are    76 symmetry adapted basis functions of A"  symmetry.
   282 basis functions,   481 primitive gaussians,   293 cartesian basis functions
    61 alpha electrons       61 beta electrons
       nuclear repulsion energy      1050.3808223111 Hartrees.
 NAtoms=   11 NActive=   11 NUniq=   11 SFac= 1.00D+00 NAtFMM=   60 NAOKFM=F Big=F
 Integral buffers will be    131072 words long.
 Raffenetti 2 integral format.
 Two-electron integral symmetry is turned on.
 One-electron integrals computed using PRISM.
 NBasis=   282 RedAO= T EigKep=  1.90D-06  NBF=   206    76
 NBsUse=   280 1.00D-06 EigRej=  6.81D-07 NBFU=   204    76
 Initial guess from the checkpoint file:  "frequency_chks/Hexachlorobenzene_anion_product_Freq.chk"
 B after Tr=     0.000000    0.000000   -0.000000
         Rot=    1.000000    0.000000    0.000000   -0.000363 Ang=  -0.04 deg.
 Initial guess orbital symmetries:
       Occupied  (A') (A') (A') (A') (A') (A') (A') (A') (A') (A')
                 (A') (A') (A') (A') (A') (A') (A') (A') (A") (A')
                 (A') (A") (A') (A") (A') (A') (A') (A") (A') (A")
                 (A') (A') (A') (A') (A') (A') (A') (A') (A') (A')
                 (A') (A') (A') (A') (A") (A') (A') (A") (A') (A")
                 (A') (A') (A") (A") (A') (A') (A") (A') (A") (A")
                 (A')
       Virtual   (A') (A') (A') (A") (A') (A") (A') (A') (A") (A')
                 (A") (A') (A") (A') (A') (A') (A") (A") (A') (A')
                 (A') (A") (A') (A') (A') (A') (A") (A') (A") (A')
                 (A") (A') (A') (A') (A') (A") (A") (A') (A') (A")
                 (A') (A') (A') (A') (A') (A') (A') (A') (A') (A')
                 (A') (A') (A') (A') (A') (A") (A') (A') (A") (A')
                 (A') (A") (A') (A') (A') (A") (A') (A") (A') (A')
                 (A") (A') (A") (A") (A') (A") (A") (A') (A') (A')
                 (A") (A') (A') (A') (A") (A') (A') (A") (A') (A')
                 (A") (A') (A") (A') (A") (A') (A') (A") (A") (A")
                 (A') (A') (A') (A") (A') (A') (A') (A') (A') (A')
                 (A') (A") (A') (A") (A') (A') (A') (A') (A') (A')
                 (A") (A') (A') (A") (A') (A') (A") (A') (A") (A")
                 (A') (A') (A') (A') (A') (A') (A") (A") (A') (A')
                 (A') (A') (A") (A") (A") (A') (A') (A') (A') (A")
                 (A') (A") (A") (A") (A') (A") (A") (A') (A') (A')
                 (A') (A') (A') (A') (A') (A') (A') (A') (A") (A')
                 (A") (A") (A") (A') (A") (A") (A') (A') (A') (A')
                 (A') (A') (A') (A') (A') (A') (A') (A') (A') (A')
                 (A') (A') (A') (A') (A') (A') (A') (A') (A') (A")
                 (A") (A") (A") (A") (A') (A') (A') (A') (A') (A')
                 (A') (A') (A') (A') (A') (A') (A') (A') (A')
 ExpMin= 4.38D-02 ExpMax= 1.06D+05 ExpMxC= 3.62D+03 IAcc=3 IRadAn=         5 AccDes= 0.00D+00
 Harris functional with IExCor= 1009 and IRadAn=       5 diagonalized for initial guess.
 HarFok:  IExCor= 1009 AccDes= 0.00D+00 IRadAn=         5 IDoV= 1 UseB2=F ITyADJ=14
 ICtDFT=  3500011 ScaDFX=  1.000000  1.000000  1.000000  1.000000
 FoFCou: FMM=F IPFlag=           0 FMFlag=      100000 FMFlg1=           0
         NFxFlg=           0 DoJE=T BraDBF=F KetDBF=T FulRan=T
         wScrn=  0.000000 ICntrl=       500 IOpCl=  0 I1Cent=   200000004 NGrid=           0
         NMat0=    1 NMatS0=      1 NMatT0=    0 NMatD0=    1 NMtDS0=    0 NMtDT0=    0
 Petite list used in FoFCou.
 Requested convergence on RMS density matrix=1.00D-08 within 128 cycles.
 Requested convergence on MAX density matrix=1.00D-06.
 Requested convergence on             energy=1.00D-06.
 No special actions if energy rises.
 SCF Done:  E(RM062X) =  -2529.60228244     A.U. after   14 cycles
            NFock= 14  Conv=0.20D-08     -V/T= 2.0022
 Calling FoFJK, ICntrl=      2127 FMM=F ISym2X=1 I1Cent= 0 IOpClX= 0 NMat=1 NMatS=1 NMatT=0.
 ***** Axes restored to original set *****
 -------------------------------------------------------------------
 Center     Atomic                   Forces (Hartrees/Bohr)
 Number     Number              X              Y              Z
 -------------------------------------------------------------------
      1        6          -0.010385378   -0.003741732   -0.000000000
      2        6          -0.000327348    0.000457409    0.000000000
      3        6          -0.000469475    0.000594454    0.000000000
      4        6          -0.001853031   -0.002241116   -0.000000000
      5        6          -0.003336393    0.005048388    0.000000000
      6        6          -0.000099883   -0.005282961   -0.000000000
      7       17          -0.000242996    0.001353141    0.000000000
      8       17           0.008649059    0.005034864    0.000000000
      9       17          -0.000024366    0.000231589    0.000000000
     10       17           0.002664122    0.001743728    0.000000000
     11       17           0.005425689   -0.003197763   -0.000000000
 -------------------------------------------------------------------
 Cartesian Forces:  Max     0.010385378 RMS     0.003245709

 GradGradGradGradGradGradGradGradGradGradGradGradGradGradGradGradGradGrad
 Berny optimization.
 Using GEDIIS/GDIIS optimizer.
 FormGI is forming the generalized inverse of G from B-inverse, IUseBI=4.
 Internal  Forces:  Max     0.010006147 RMS     0.001900890
 Search for a local minimum.
 Step number  10 out of a maximum of   57
 All quantities printed in internal units (Hartrees-Bohrs-Radians)
 Mixed Optimization -- RFO/linear search
 Update second derivatives using D2CorX and points    6    7    8    9   10
 DE= -1.69D-04 DEPred=-1.42D-04 R= 1.19D+00
 TightC=F SS=  1.41D+00  RLast= 2.75D-02 DXNew= 2.4000D+00 8.2504D-02
 Trust test= 1.19D+00 RLast= 2.75D-02 DXMaxT set to 1.43D+00
 ITU=  1  1  1  1  1  1  0  0  1  0
 Use linear search instead of GDIIS.
     Eigenvalues ---    0.02237   0.02241   0.02246   0.02249   0.02252
     Eigenvalues ---    0.02262   0.02262   0.02262   0.15054   0.22731
     Eigenvalues ---    0.24952   0.24998   0.25072   0.25507   0.26108
     Eigenvalues ---    0.27111   0.31322   0.34483   0.37923   0.42270
     Eigenvalues ---    0.45066   0.47314   0.48217   0.54679   0.56226
     Eigenvalues ---   11.55621  12.00872
 RFO step:  Lambda=-6.02530282D-05 EMin= 2.23719039D-02
 Quartic linear search produced a step of  0.23925.
 Iteration  1 RMS(Cart)=  0.00196625 RMS(Int)=  0.00000287
 Iteration  2 RMS(Cart)=  0.00000387 RMS(Int)=  0.00000074
 Iteration  3 RMS(Cart)=  0.00000000 RMS(Int)=  0.00000074
 ClnCor:  largest displacement from symmetrization is 6.53D-11 for atom    11.
 Variable       Old X    -DE/DX   Delta X   Delta X   Delta X     New X
                                 (Linear)    (Quad)   (Total)
    R1        2.60375  -0.00057  -0.00013  -0.00131  -0.00144   2.60231
    R2        2.64709  -0.00245  -0.00167  -0.00444  -0.00611   2.64097
    R3        3.33503   0.01001   0.00217   0.00147   0.00363   3.33866
    R4        2.59398  -0.00035  -0.00025  -0.00009  -0.00035   2.59363
    R5        2.63951  -0.00107   0.00019  -0.00222  -0.00203   2.63748
    R6        3.39503  -0.00023  -0.00222  -0.00029  -0.00251   3.39252
    R7        2.63809  -0.00022   0.00071  -0.00058   0.00013   2.63821
    R8        3.32074  -0.00318   0.00182   0.00023   0.00206   3.32279
    R9        2.64734  -0.00282  -0.00065  -0.00589  -0.00654   2.64080
   R10        3.31716  -0.00630   0.00174  -0.00005   0.00169   3.31885
   R11        3.29785   0.00135  -0.00011   0.00515   0.00504   3.30289
    A1        2.17431  -0.00024  -0.00026  -0.00167  -0.00193   2.17238
    A2        2.06961  -0.00013   0.00014  -0.00064  -0.00050   2.06910
    A3        2.03927   0.00038   0.00012   0.00231   0.00243   2.04170
    A4        2.00199  -0.00018   0.00044  -0.00001   0.00043   2.00242
    A5        2.18010  -0.00017  -0.00030  -0.00020  -0.00050   2.17960
    A6        2.06699   0.00014   0.00004   0.00023   0.00026   2.06725
    A7        2.03610   0.00002   0.00026  -0.00003   0.00024   2.03633
    A8        2.06160  -0.00031  -0.00043  -0.00067  -0.00109   2.06050
    A9        2.13952   0.00051   0.00217   0.00057   0.00274   2.14226
   A10        2.08207  -0.00020  -0.00174   0.00009  -0.00164   2.08042
   A11        2.08888  -0.00008  -0.00008  -0.00062  -0.00069   2.08819
   A12        2.09876  -0.00004  -0.00241   0.00120  -0.00121   2.09755
   A13        2.09554   0.00012   0.00249  -0.00058   0.00191   2.09745
   A14        2.05949   0.00098   0.00062   0.00316   0.00379   2.06328
   A15        2.13956  -0.00012  -0.00143   0.00059  -0.00084   2.13872
   A16        2.08414  -0.00087   0.00081  -0.00376  -0.00295   2.08119
    D1        0.00000   0.00000   0.00000   0.00000   0.00000   0.00000
    D2        3.14159   0.00000   0.00000   0.00000   0.00000   3.14159
    D3       -0.00000  -0.00000   0.00000  -0.00000   0.00000   0.00000
    D4        3.14159  -0.00000   0.00000  -0.00000   0.00000   3.14159
    D5        3.14159  -0.00000   0.00000  -0.00000   0.00000   3.14159
    D6        0.00000  -0.00000   0.00000  -0.00000  -0.00000   0.00000
    D7        0.00000   0.00000   0.00000   0.00000  -0.00000   0.00000
    D8        3.14159  -0.00000   0.00000  -0.00000   0.00000   3.14159
    D9       -0.00000  -0.00000   0.00000  -0.00000   0.00000   0.00000
   D10        3.14159  -0.00000   0.00000  -0.00000   0.00000   3.14159
   D11        3.14159   0.00000   0.00000   0.00000   0.00000   3.14159
   D12        0.00000   0.00000   0.00000   0.00000   0.00000   0.00000
   D13        0.00000   0.00000   0.00000   0.00000  -0.00000   0.00000
   D14        3.14159  -0.00000   0.00000  -0.00000   0.00000   3.14159
   D15        3.14159  -0.00000   0.00000  -0.00000   0.00000   3.14159
   D16       -0.00000  -0.00000   0.00000  -0.00000   0.00000   0.00000
   D17       -0.00000   0.00000   0.00000   0.00000   0.00000   0.00000
   D18        3.14159   0.00000   0.00000   0.00000   0.00000   3.14159
   D19        3.14159   0.00000   0.00000   0.00000   0.00000   3.14159
   D20       -0.00000   0.00000   0.00000   0.00000   0.00000   0.00000
         Item               Value     Threshold  Converged?
 Maximum Force            0.010006     0.000450     NO 
 RMS     Force            0.001901     0.000300     NO 
 Maximum Displacement     0.007693     0.001800     NO 
 RMS     Displacement     0.001968     0.001200     NO 
 Predicted change in Energy=-3.668214D-05
 GradGradGradGradGradGradGradGradGradGradGradGradGradGradGradGradGradGrad

                          Input orientation:                          
 ---------------------------------------------------------------------
 Center     Atomic      Atomic             Coordinates (Angstroms)
 Number     Number       Type             X           Y           Z
 ---------------------------------------------------------------------
      1          6           0        1.242448    0.624782    0.000000
      2          6           0        1.302166   -0.751005   -0.000000
      3          6           0        0.081623   -1.378703   -0.000000
      4          6           0       -1.151818   -0.725567   -0.000000
      5          6           0       -1.155617    0.670509    0.000000
      6          6           0        0.057039    1.365009    0.000000
      7         17           0        0.040051    3.112738    0.000000
      8         17           0        2.756262    1.535684    0.000000
      9         17           0        0.043117   -3.173533   -0.000000
     10         17           0       -2.684385   -1.587551   -0.000000
     11         17           0       -2.676204    1.549296    0.000000
 ---------------------------------------------------------------------
                    Distance matrix (angstroms):
                    1          2          3          4          5
     1  C    0.000000
     2  C    1.377083   0.000000
     3  C    2.315484   1.372491   0.000000
     4  C    2.748809   2.454116   1.395694   0.000000
     5  C    2.398501   2.839261   2.393749   1.396081   0.000000
     6  C    1.397543   2.455169   2.743821   2.414921   1.397450
     7  Cl   2.763274   4.064659   4.491633   4.019096   2.719210
     8  Cl   1.766742   2.709861   3.955673   4.515124   4.006411
     9  Cl   3.983164   2.730173   1.795244   2.724043   4.026615
    10  Cl   4.507154   4.073377   2.773882   1.758346   2.726897
    11  Cl   4.026234   4.595522   4.022286   2.738385   1.756261
                    6          7          8          9         10
     6  C    0.000000
     7  Cl   1.747812   0.000000
     8  Cl   2.704613   3.140845   0.000000
     9  Cl   4.538563   6.286272   5.434877   0.000000
    10  Cl   4.029022   5.432796   6.273376   3.155093   0.000000
    11  Cl   2.739450   3.134070   5.432484   5.449754   3.136857
                   11
    11  Cl   0.000000
 Stoichiometry    C6Cl5(1-)
 Framework group  CS[SG(C6Cl5)]
 Deg. of freedom    19
 Full point group                 CS      NOp   2
 Largest Abelian subgroup         CS      NOp   2
 Largest concise Abelian subgroup C1      NOp   1
                         Standard orientation:                         
 ---------------------------------------------------------------------
 Center     Atomic      Atomic             Coordinates (Angstroms)
 Number     Number       Type             X           Y           Z
 ---------------------------------------------------------------------
      1          6           0       -1.168777    1.145106    0.000000
      2          6           0       -0.010477    1.889888    0.000000
      3          6           0        1.146697    1.151864    0.000000
      4          6           0        1.204000   -0.242653   -0.000000
      5          6           0       -0.000000   -0.949354   -0.000000
      6          6           0       -1.210903   -0.251802   -0.000000
      7         17           0       -2.712012   -1.147078   -0.000000
      8         17           0       -2.718346    1.993760    0.000000
      9         17           0        2.716452    2.022937    0.000000
     10         17           0        2.720763   -1.132153   -0.000000
     11         17           0        0.007069   -2.705601   -0.000000
 ---------------------------------------------------------------------
 Rotational constants (GHZ):           0.7061348           0.4595699           0.2783881
 Standard basis: 6-311++G(d,p) (5D, 7F)
 There are   217 symmetry adapted cartesian basis functions of A'  symmetry.
 There are    76 symmetry adapted cartesian basis functions of A"  symmetry.
 There are   206 symmetry adapted basis functions of A'  symmetry.
 There are    76 symmetry adapted basis functions of A"  symmetry.
   282 basis functions,   481 primitive gaussians,   293 cartesian basis functions
    61 alpha electrons       61 beta electrons
       nuclear repulsion energy      1050.5976977628 Hartrees.
 NAtoms=   11 NActive=   11 NUniq=   11 SFac= 1.00D+00 NAtFMM=   60 NAOKFM=F Big=F
 Integral buffers will be    131072 words long.
 Raffenetti 2 integral format.
 Two-electron integral symmetry is turned on.
 One-electron integrals computed using PRISM.
 NBasis=   282 RedAO= T EigKep=  1.89D-06  NBF=   206    76
 NBsUse=   280 1.00D-06 EigRej=  6.71D-07 NBFU=   204    76
 Initial guess from the checkpoint file:  "frequency_chks/Hexachlorobenzene_anion_product_Freq.chk"
 B after Tr=    -0.000000    0.000000   -0.000000
         Rot=    1.000000   -0.000000   -0.000000   -0.000262 Ang=  -0.03 deg.
 Initial guess orbital symmetries:
       Occupied  (A') (A') (A') (A') (A') (A') (A') (A') (A') (A')
                 (A') (A') (A') (A') (A') (A') (A') (A') (A") (A')
                 (A') (A") (A') (A") (A') (A') (A') (A") (A') (A")
                 (A') (A') (A') (A') (A') (A') (A') (A') (A') (A')
                 (A') (A') (A') (A') (A") (A') (A') (A") (A') (A")
                 (A') (A') (A") (A") (A') (A') (A") (A') (A") (A")
                 (A')
       Virtual   (A') (A') (A') (A") (A') (A") (A') (A') (A") (A')
                 (A") (A') (A") (A') (A') (A') (A") (A") (A') (A')
                 (A') (A") (A') (A') (A') (A') (A") (A') (A") (A')
                 (A") (A') (A') (A') (A') (A") (A") (A') (A') (A")
                 (A') (A') (A') (A') (A') (A') (A') (A') (A') (A')
                 (A') (A') (A') (A') (A') (A") (A') (A') (A") (A')
                 (A') (A") (A') (A') (A') (A') (A") (A") (A') (A')
                 (A") (A') (A") (A") (A') (A") (A") (A') (A') (A')
                 (A") (A') (A') (A') (A") (A') (A') (A") (A') (A')
                 (A") (A') (A") (A') (A") (A') (A') (A") (A") (A")
                 (A') (A') (A") (A') (A') (A') (A') (A') (A') (A')
                 (A') (A") (A') (A") (A') (A') (A') (A') (A') (A')
                 (A") (A') (A') (A") (A') (A') (A") (A') (A") (A")
                 (A') (A') (A') (A') (A') (A') (A") (A") (A') (A')
                 (A') (A') (A") (A") (A") (A') (A') (A') (A') (A")
                 (A') (A") (A") (A") (A') (A") (A") (A') (A') (A')
                 (A') (A') (A') (A') (A') (A') (A') (A') (A") (A')
                 (A") (A") (A") (A") (A') (A") (A') (A') (A') (A')
                 (A') (A') (A') (A') (A') (A') (A') (A') (A') (A')
                 (A') (A') (A') (A') (A') (A') (A') (A') (A') (A")
                 (A") (A") (A") (A") (A') (A') (A') (A') (A') (A')
                 (A') (A') (A') (A') (A') (A') (A') (A') (A')
 Requested convergence on RMS density matrix=1.00D-08 within 128 cycles.
 Requested convergence on MAX density matrix=1.00D-06.
 Requested convergence on             energy=1.00D-06.
 No special actions if energy rises.
 SCF Done:  E(RM062X) =  -2529.60232862     A.U. after   13 cycles
            NFock= 13  Conv=0.59D-08     -V/T= 2.0022
 Calling FoFJK, ICntrl=      2127 FMM=F ISym2X=1 I1Cent= 0 IOpClX= 0 NMat=1 NMatS=1 NMatT=0.
 ***** Axes restored to original set *****
 -------------------------------------------------------------------
 Center     Atomic                   Forces (Hartrees/Bohr)
 Number     Number              X              Y              Z
 -------------------------------------------------------------------
      1        6          -0.007941644   -0.004690595   -0.000000000
      2        6           0.000091671    0.000131610    0.000000000
      3        6          -0.000312459    0.000158691   -0.000000000
      4        6          -0.002848833   -0.001907715   -0.000000000
      5        6          -0.005890376    0.003691117    0.000000000
      6        6           0.000006418   -0.001060299   -0.000000000
      7       17          -0.000009959    0.000797486    0.000000000
      8       17           0.007970179    0.004792188    0.000000000
      9       17          -0.000081624   -0.000251144   -0.000000000
     10       17           0.003247864    0.001599930    0.000000000
     11       17           0.005768762   -0.003261270    0.000000000
 -------------------------------------------------------------------
 Cartesian Forces:  Max     0.007970179 RMS     0.002967694

 GradGradGradGradGradGradGradGradGradGradGradGradGradGradGradGradGradGrad
 Berny optimization.
 Using GEDIIS/GDIIS optimizer.
 FormGI is forming the generalized inverse of G from B-inverse, IUseBI=4.
 Internal  Forces:  Max     0.009299357 RMS     0.001754674
 Search for a local minimum.
 Step number  11 out of a maximum of   57
 All quantities printed in internal units (Hartrees-Bohrs-Radians)
 Mixed Optimization -- RFO/linear search
 Update second derivatives using D2CorX and points    6    7    8    9   10
                                                     11
 DE= -4.62D-05 DEPred=-3.67D-05 R= 1.26D+00
 TightC=F SS=  1.41D+00  RLast= 1.38D-02 DXNew= 2.4000D+00 4.1310D-02
 Trust test= 1.26D+00 RLast= 1.38D-02 DXMaxT set to 1.43D+00
 ITU=  1  1  1  1  1  1  1  0  0  1  0
 Use linear search instead of GDIIS.
     Eigenvalues ---    0.02237   0.02241   0.02246   0.02249   0.02252
     Eigenvalues ---    0.02262   0.02262   0.02262   0.14863   0.20921
     Eigenvalues ---    0.24767   0.25026   0.25367   0.25419   0.25889
     Eigenvalues ---    0.26695   0.30026   0.34481   0.38299   0.42108
     Eigenvalues ---    0.45249   0.47128   0.47807   0.53703   0.62120
     Eigenvalues ---   10.28635  12.00873
 RFO step:  Lambda=-1.76364636D-05 EMin= 2.23721110D-02
 Quartic linear search produced a step of  0.34434.
 Iteration  1 RMS(Cart)=  0.00071894 RMS(Int)=  0.00000070
 Iteration  2 RMS(Cart)=  0.00000088 RMS(Int)=  0.00000044
 ClnCor:  largest displacement from symmetrization is 4.65D-13 for atom    10.
 Variable       Old X    -DE/DX   Delta X   Delta X   Delta X     New X
                                 (Linear)    (Quad)   (Total)
    R1        2.60231  -0.00002  -0.00049   0.00011  -0.00038   2.60193
    R2        2.64097  -0.00004  -0.00210  -0.00026  -0.00236   2.63861
    R3        3.33866   0.00930   0.00125   0.00045   0.00170   3.34036
    R4        2.59363   0.00014  -0.00012   0.00001  -0.00011   2.59352
    R5        2.63748  -0.00028  -0.00070  -0.00038  -0.00108   2.63640
    R6        3.39252   0.00025  -0.00086   0.00045  -0.00042   3.39210
    R7        2.63821   0.00029   0.00004   0.00090   0.00094   2.63915
    R8        3.32279  -0.00361   0.00071  -0.00079  -0.00009   3.32271
    R9        2.64080  -0.00005  -0.00225   0.00024  -0.00201   2.63878
   R10        3.31885  -0.00663   0.00058  -0.00108  -0.00050   3.31835
   R11        3.30289   0.00080   0.00174   0.00239   0.00413   3.30702
    A1        2.17238  -0.00003  -0.00066  -0.00041  -0.00107   2.17131
    A2        2.06910   0.00000  -0.00017   0.00037   0.00019   2.06930
    A3        2.04170   0.00003   0.00084   0.00004   0.00088   2.04258
    A4        2.00242  -0.00001   0.00015  -0.00005   0.00010   2.00252
    A5        2.17960  -0.00000  -0.00017   0.00030   0.00013   2.17973
    A6        2.06725   0.00014   0.00009   0.00033   0.00042   2.06767
    A7        2.03633  -0.00014   0.00008  -0.00063  -0.00055   2.03579
    A8        2.06050   0.00010  -0.00038   0.00023  -0.00015   2.06036
    A9        2.14226  -0.00037   0.00094  -0.00083   0.00012   2.14237
   A10        2.08042   0.00027  -0.00057   0.00060   0.00003   2.08045
   A11        2.08819  -0.00019  -0.00024  -0.00105  -0.00129   2.08690
   A12        2.09755   0.00021  -0.00042  -0.00000  -0.00042   2.09713
   A13        2.09745  -0.00002   0.00066   0.00105   0.00171   2.09916
   A14        2.06328   0.00014   0.00130   0.00098   0.00228   2.06556
   A15        2.13872  -0.00008  -0.00029  -0.00119  -0.00148   2.13724
   A16        2.08119  -0.00006  -0.00102   0.00022  -0.00080   2.08039
    D1       -0.00000   0.00000   0.00000  -0.00000   0.00000   0.00000
    D2        3.14159   0.00000   0.00000  -0.00000   0.00000   3.14159
    D3       -0.00000  -0.00000   0.00000  -0.00000   0.00000   0.00000
    D4        3.14159  -0.00000   0.00000  -0.00000   0.00000   3.14159
    D5        3.14159  -0.00000   0.00000  -0.00000   0.00000   3.14159
    D6       -0.00000  -0.00000   0.00000  -0.00000   0.00000   0.00000
    D7        0.00000   0.00000   0.00000   0.00000  -0.00000   0.00000
    D8        3.14159   0.00000   0.00000   0.00000   0.00000   3.14159
    D9        0.00000  -0.00000   0.00000  -0.00000   0.00000   0.00000
   D10        3.14159  -0.00000   0.00000  -0.00000   0.00000   3.14159
   D11        3.14159  -0.00000   0.00000  -0.00000   0.00000   3.14159
   D12       -0.00000  -0.00000   0.00000  -0.00000   0.00000   0.00000
   D13       -0.00000   0.00000   0.00000   0.00000   0.00000   0.00000
   D14        3.14159   0.00000   0.00000   0.00000   0.00000   3.14159
   D15        3.14159   0.00000   0.00000   0.00000   0.00000   3.14159
   D16        0.00000   0.00000   0.00000   0.00000   0.00000   0.00000
   D17        0.00000   0.00000   0.00000   0.00000   0.00000   0.00000
   D18        3.14159   0.00000   0.00000   0.00000   0.00000   3.14159
   D19        3.14159   0.00000   0.00000  -0.00000   0.00000   3.14159
   D20        0.00000   0.00000   0.00000  -0.00000  -0.00000   0.00000
         Item               Value     Threshold  Converged?
 Maximum Force            0.009299     0.000450     NO 
 RMS     Force            0.001755     0.000300     NO 
 Maximum Displacement     0.003312     0.001800     NO 
 RMS     Displacement     0.000719     0.001200     YES
 Predicted change in Energy=-1.211006D-05
 GradGradGradGradGradGradGradGradGradGradGradGradGradGradGradGradGradGrad

                          Input orientation:                          
 ---------------------------------------------------------------------
 Center     Atomic      Atomic             Coordinates (Angstroms)
 Number     Number       Type             X           Y           Z
 ---------------------------------------------------------------------
      1          6           0        1.242186    0.624929    0.000000
      2          6           0        1.301860   -0.750658   -0.000000
      3          6           0        0.081415   -1.378416   -0.000000
      4          6           0       -1.151651   -0.725790   -0.000000
      5          6           0       -1.155522    0.670783    0.000000
      6          6           0        0.057067    1.363256    0.000000
      7         17           0        0.040820    3.113178    0.000000
      8         17           0        2.756619    1.536548    0.000000
      9         17           0        0.042288   -3.173013   -0.000000
     10         17           0       -2.684108   -1.587879   -0.000000
     11         17           0       -2.676292    1.548722    0.000000
 ---------------------------------------------------------------------
                    Distance matrix (angstroms):
                    1          2          3          4          5
     1  C    0.000000
     2  C    1.376881   0.000000
     3  C    2.315336   1.372431   0.000000
     4  C    2.748617   2.453637   1.395124   0.000000
     5  C    2.398147   2.838877   2.393581   1.396579   0.000000
     6  C    1.396293   2.453190   2.741780   2.413527   1.396385
     7  Cl   2.763089   4.064413   4.491777   4.019908   2.719655
     8  Cl   1.767641   2.710652   3.956480   4.515833   4.006794
     9  Cl   3.982979   2.730261   1.795024   2.722937   4.026105
    10  Cl   4.506917   4.072945   2.773444   1.758300   2.727293
    11  Cl   4.025899   4.594871   4.021577   2.738236   1.755995
                    6          7          8          9         10
     6  C    0.000000
     7  Cl   1.749997   0.000000
     8  Cl   2.705108   3.140274   0.000000
     9  Cl   4.536293   6.286191   5.435767   0.000000
    10  Cl   4.027808   5.433706   6.274037   3.153709   0.000000
    11  Cl   2.739644   3.135318   5.432924   5.448436   3.136610
                   11
    11  Cl   0.000000
 Stoichiometry    C6Cl5(1-)
 Framework group  CS[SG(C6Cl5)]
 Deg. of freedom    19
 Full point group                 CS      NOp   2
 Largest Abelian subgroup         CS      NOp   2
 Largest concise Abelian subgroup C1      NOp   1
                         Standard orientation:                         
 ---------------------------------------------------------------------
 Center     Atomic      Atomic             Coordinates (Angstroms)
 Number     Number       Type             X           Y           Z
 ---------------------------------------------------------------------
      1          6           0       -1.168906    1.144577    0.000000
      2          6           0       -0.010905    1.889450    0.000000
      3          6           0        1.146419    1.151773    0.000000
      4          6           0        1.204252   -0.242152   -0.000000
      5          6           0       -0.000000   -0.949406   -0.000000
      6          6           0       -1.209258   -0.251133    0.000000
      7         17           0       -2.712455   -1.147173    0.000000
      8         17           0       -2.719575    1.993093    0.000000
      9         17           0        2.716112    2.022505    0.000000
     10         17           0        2.721227   -1.131200   -0.000000
     11         17           0        0.008244   -2.705382   -0.000000
 ---------------------------------------------------------------------
 Rotational constants (GHZ):           0.7064352           0.4594463           0.2783894
 Standard basis: 6-311++G(d,p) (5D, 7F)
 There are   217 symmetry adapted cartesian basis functions of A'  symmetry.
 There are    76 symmetry adapted cartesian basis functions of A"  symmetry.
 There are   206 symmetry adapted basis functions of A'  symmetry.
 There are    76 symmetry adapted basis functions of A"  symmetry.
   282 basis functions,   481 primitive gaussians,   293 cartesian basis functions
    61 alpha electrons       61 beta electrons
       nuclear repulsion energy      1050.6143857078 Hartrees.
 NAtoms=   11 NActive=   11 NUniq=   11 SFac= 1.00D+00 NAtFMM=   60 NAOKFM=F Big=F
 Integral buffers will be    131072 words long.
 Raffenetti 2 integral format.
 Two-electron integral symmetry is turned on.
 One-electron integrals computed using PRISM.
 NBasis=   282 RedAO= T EigKep=  1.88D-06  NBF=   206    76
 NBsUse=   280 1.00D-06 EigRej=  6.68D-07 NBFU=   204    76
 Initial guess from the checkpoint file:  "frequency_chks/Hexachlorobenzene_anion_product_Freq.chk"
 B after Tr=    -0.000000   -0.000000    0.000000
         Rot=    1.000000    0.000000    0.000000   -0.000101 Ang=  -0.01 deg.
 Initial guess orbital symmetries:
       Occupied  (A') (A') (A') (A') (A') (A') (A') (A') (A') (A')
                 (A') (A') (A') (A') (A') (A') (A') (A") (A') (A')
                 (A') (A") (A') (A") (A') (A') (A') (A") (A') (A")
                 (A') (A') (A') (A') (A') (A') (A') (A') (A') (A')
                 (A') (A') (A') (A') (A") (A') (A') (A") (A') (A")
                 (A') (A') (A") (A") (A') (A') (A") (A') (A") (A")
                 (A')
       Virtual   (A') (A') (A') (A") (A') (A") (A') (A') (A") (A')
                 (A") (A') (A") (A') (A') (A') (A") (A") (A') (A')
                 (A') (A") (A') (A') (A') (A') (A") (A') (A") (A')
                 (A") (A') (A') (A') (A') (A") (A") (A') (A') (A")
                 (A') (A') (A') (A') (A') (A') (A') (A') (A') (A')
                 (A') (A') (A') (A') (A') (A") (A') (A') (A") (A')
                 (A') (A") (A') (A') (A') (A') (A") (A") (A') (A')
                 (A") (A') (A") (A") (A') (A") (A") (A') (A') (A')
                 (A") (A') (A') (A') (A") (A') (A') (A") (A') (A')
                 (A") (A') (A") (A') (A") (A') (A') (A") (A") (A")
                 (A') (A') (A") (A') (A') (A') (A') (A') (A') (A')
                 (A') (A") (A') (A") (A') (A') (A') (A') (A') (A')
                 (A") (A') (A') (A") (A') (A') (A") (A') (A") (A")
                 (A') (A') (A') (A') (A') (A') (A") (A") (A') (A')
                 (A') (A') (A") (A") (A") (A') (A') (A') (A') (A")
                 (A') (A") (A") (A") (A') (A") (A") (A') (A') (A')
                 (A') (A') (A') (A') (A') (A') (A') (A') (A") (A')
                 (A") (A") (A") (A") (A') (A") (A') (A') (A') (A')
                 (A') (A') (A') (A') (A') (A') (A') (A') (A') (A')
                 (A') (A') (A') (A') (A') (A') (A') (A') (A') (A")
                 (A") (A") (A") (A") (A') (A') (A') (A') (A') (A')
                 (A') (A') (A') (A') (A') (A') (A') (A') (A')
 Requested convergence on RMS density matrix=1.00D-08 within 128 cycles.
 Requested convergence on MAX density matrix=1.00D-06.
 Requested convergence on             energy=1.00D-06.
 No special actions if energy rises.
 SCF Done:  E(RM062X) =  -2529.60234767     A.U. after   13 cycles
            NFock= 13  Conv=0.21D-08     -V/T= 2.0022
 Calling FoFJK, ICntrl=      2127 FMM=F ISym2X=1 I1Cent= 0 IOpClX= 0 NMat=1 NMatS=1 NMatT=0.
 ***** Axes restored to original set *****
 -------------------------------------------------------------------
 Center     Atomic                   Forces (Hartrees/Bohr)
 Number     Number              X              Y              Z
 -------------------------------------------------------------------
      1        6          -0.007053834   -0.005151494   -0.000000000
      2        6           0.000274799    0.000066413    0.000000000
      3        6          -0.000147907   -0.000056429   -0.000000000
      4        6          -0.003190722   -0.001422960   -0.000000000
      5        6          -0.006420885    0.002778914   -0.000000000
      6        6          -0.000071639    0.000959538    0.000000000
      7       17          -0.000107552    0.000142372    0.000000000
      8       17           0.007667717    0.004593651    0.000000000
      9       17           0.000020615   -0.000385049   -0.000000000
     10       17           0.003218981    0.001621987    0.000000000
     11       17           0.005810427   -0.003146944    0.000000000
 -------------------------------------------------------------------
 Cartesian Forces:  Max     0.007667717 RMS     0.002887874

 GradGradGradGradGradGradGradGradGradGradGradGradGradGradGradGradGradGrad
 Berny optimization.
 Using GEDIIS/GDIIS optimizer.
 FormGI is forming the generalized inverse of G from B-inverse, IUseBI=4.
 Internal  Forces:  Max     0.008937821 RMS     0.001716707
 Search for a local minimum.
 Step number  12 out of a maximum of   57
 All quantities printed in internal units (Hartrees-Bohrs-Radians)
 Mixed Optimization -- RFO/linear search
 Update second derivatives using D2CorX and points    6    7    8    9   10
                                                     11   12
 DE= -1.90D-05 DEPred=-1.21D-05 R= 1.57D+00
 TightC=F SS=  1.41D+00  RLast= 6.89D-03 DXNew= 2.4000D+00 2.0669D-02
 Trust test= 1.57D+00 RLast= 6.89D-03 DXMaxT set to 1.43D+00
 ITU=  1  1  1  1  1  1  1  1  0  0  1  0
 Use linear search instead of GDIIS.
     Eigenvalues ---    0.02237   0.02241   0.02246   0.02249   0.02252
     Eigenvalues ---    0.02262   0.02262   0.02262   0.14384   0.18882
     Eigenvalues ---    0.24449   0.25024   0.25339   0.25657   0.26140
     Eigenvalues ---    0.27753   0.29185   0.34047   0.38447   0.41906
     Eigenvalues ---    0.45336   0.47436   0.49032   0.53922   0.63915
     Eigenvalues ---    5.76336  12.00898
 RFO step:  Lambda=-2.65354168D-05 EMin= 2.23721857D-02
 Quartic linear search produced a step of  1.48392.
 Iteration  1 RMS(Cart)=  0.00112147 RMS(Int)=  0.00000147
 Iteration  2 RMS(Cart)=  0.00000202 RMS(Int)=  0.00000075
 Iteration  3 RMS(Cart)=  0.00000000 RMS(Int)=  0.00000075
 ClnCor:  largest displacement from symmetrization is 2.75D-11 for atom    11.
 Variable       Old X    -DE/DX   Delta X   Delta X   Delta X     New X
                                 (Linear)    (Quad)   (Total)
    R1        2.60193   0.00007  -0.00057  -0.00019  -0.00076   2.60117
    R2        2.63861   0.00088  -0.00351   0.00061  -0.00289   2.63572
    R3        3.34036   0.00894   0.00252   0.00181   0.00433   3.34469
    R4        2.59352   0.00028  -0.00017   0.00037   0.00020   2.59372
    R5        2.63640   0.00024  -0.00160   0.00054  -0.00106   2.63534
    R6        3.39210   0.00039  -0.00062   0.00055  -0.00007   3.39203
    R7        2.63915   0.00010   0.00140   0.00020   0.00160   2.64075
    R8        3.32271  -0.00360  -0.00013  -0.00050  -0.00063   3.32208
    R9        2.63878   0.00064  -0.00299  -0.00004  -0.00302   2.63577
   R10        3.31835  -0.00661  -0.00075  -0.00105  -0.00180   3.31655
   R11        3.30702   0.00014   0.00613   0.00130   0.00743   3.31445
    A1        2.17131   0.00004  -0.00159  -0.00025  -0.00183   2.16947
    A2        2.06930  -0.00006   0.00029  -0.00046  -0.00018   2.06912
    A3        2.04258   0.00002   0.00130   0.00071   0.00201   2.04459
    A4        2.00252   0.00004   0.00015   0.00028   0.00043   2.00295
    A5        2.17973  -0.00001   0.00019  -0.00033  -0.00014   2.17959
    A6        2.06767  -0.00003   0.00062  -0.00053   0.00009   2.06776
    A7        2.03579   0.00004  -0.00081   0.00086   0.00005   2.03584
    A8        2.06036   0.00018  -0.00022   0.00023   0.00001   2.06036
    A9        2.14237  -0.00035   0.00017   0.00052   0.00069   2.14306
   A10        2.08045   0.00018   0.00005  -0.00074  -0.00069   2.07976
   A11        2.08690  -0.00003  -0.00191  -0.00024  -0.00215   2.08475
   A12        2.09713   0.00032  -0.00062   0.00042  -0.00020   2.09693
   A13        2.09916  -0.00029   0.00253  -0.00018   0.00235   2.10151
   A14        2.06556  -0.00023   0.00338   0.00031   0.00369   2.06925
   A15        2.13724   0.00028  -0.00220   0.00099  -0.00121   2.13603
   A16        2.08039  -0.00005  -0.00119  -0.00130  -0.00248   2.07790
    D1       -0.00000   0.00000   0.00000   0.00000   0.00000   0.00000
    D2        3.14159  -0.00000   0.00000  -0.00000   0.00000   3.14159
    D3        0.00000  -0.00000   0.00000  -0.00000   0.00000   0.00000
    D4        3.14159  -0.00000   0.00000  -0.00000   0.00000   3.14159
    D5        3.14159   0.00000   0.00000   0.00000   0.00000   3.14159
    D6       -0.00000   0.00000   0.00000   0.00000   0.00000   0.00000
    D7        0.00000   0.00000   0.00000  -0.00000   0.00000   0.00000
    D8        3.14159  -0.00000   0.00000  -0.00000   0.00000   3.14159
    D9       -0.00000  -0.00000   0.00000   0.00000   0.00000   0.00000
   D10        3.14159  -0.00000   0.00000  -0.00000   0.00000   3.14159
   D11        3.14159   0.00000   0.00000   0.00000   0.00000   3.14159
   D12        0.00000   0.00000   0.00000   0.00000   0.00000   0.00000
   D13       -0.00000   0.00000   0.00000  -0.00000   0.00000   0.00000
   D14        3.14159   0.00000   0.00000  -0.00000   0.00000   3.14159
   D15        3.14159   0.00000   0.00000   0.00000   0.00000   3.14159
   D16       -0.00000   0.00000   0.00000   0.00000   0.00000   0.00000
   D17       -0.00000   0.00000   0.00000   0.00000   0.00000   0.00000
   D18        3.14159   0.00000   0.00000   0.00000   0.00000   3.14159
   D19        3.14159   0.00000   0.00000   0.00000   0.00000   3.14159
   D20       -0.00000   0.00000   0.00000   0.00000   0.00000   0.00000
         Item               Value     Threshold  Converged?
 Maximum Force            0.008938     0.000450     NO 
 RMS     Force            0.001717     0.000300     NO 
 Maximum Displacement     0.005211     0.001800     NO 
 RMS     Displacement     0.001121     0.001200     YES
 Predicted change in Energy=-2.275946D-05
 GradGradGradGradGradGradGradGradGradGradGradGradGradGradGradGradGradGrad

                          Input orientation:                          
 ---------------------------------------------------------------------
 Center     Atomic      Atomic             Coordinates (Angstroms)
 Number     Number       Type             X           Y           Z
 ---------------------------------------------------------------------
      1          6           0        1.241984    0.624957    0.000000
      2          6           0        1.301411   -0.750239   -0.000000
      3          6           0        0.081035   -1.378365   -0.000000
      4          6           0       -1.151614   -0.726148   -0.000000
      5          6           0       -1.155663    0.671271    0.000000
      6          6           0        0.056936    1.360498    0.000000
      7         17           0        0.039846    3.114345    0.000000
      8         17           0        2.758695    1.537236    0.000000
      9         17           0        0.042214   -3.172932   -0.000000
     10         17           0       -2.684270   -1.587205   -0.000000
     11         17           0       -2.675893    1.548241    0.000000
 ---------------------------------------------------------------------
                    Distance matrix (angstroms):
                    1          2          3          4          5
     1  C    0.000000
     2  C    1.376480   0.000000
     3  C    2.315405   1.372538   0.000000
     4  C    2.748599   2.453143   1.394564   0.000000
     5  C    2.398094   2.838645   2.393831   1.397425   0.000000
     6  C    1.394761   2.450292   2.738969   2.411366   1.394787
     7  Cl   2.764450   4.065287   4.492898   4.021064   2.719899
     8  Cl   1.769933   2.712235   3.958609   4.518121   4.009001
     9  Cl   3.982890   2.730388   1.794987   2.722494   4.026513
    10  Cl   4.506566   4.072612   2.773180   1.757969   2.727151
    11  Cl   4.025197   4.593687   4.020655   2.737932   1.755043
                    6          7          8          9         10
     6  C    0.000000
     7  Cl   1.753930   0.000000
     8  Cl   2.707533   3.143152   0.000000
     9  Cl   4.533454   6.287277   5.437366   0.000000
    10  Cl   4.025316   5.433726   6.275986   3.154084   0.000000
    11  Cl   2.739270   3.134951   5.434598   5.447712   3.135457
                   11
    11  Cl   0.000000
 Stoichiometry    C6Cl5(1-)
 Framework group  CS[SG(C6Cl5)]
 Deg. of freedom    19
 Full point group                 CS      NOp   2
 Largest Abelian subgroup         CS      NOp   2
 Largest concise Abelian subgroup C1      NOp   1
                         Standard orientation:                         
 ---------------------------------------------------------------------
 Center     Atomic      Atomic             Coordinates (Angstroms)
 Number     Number       Type             X           Y           Z
 ---------------------------------------------------------------------
      1          6           0       -1.168755    1.144232    0.000000
      2          6           0       -0.011065    1.888848   -0.000000
      3          6           0        1.146639    1.151569   -0.000000
      4          6           0        1.204799   -0.241782   -0.000000
      5          6           0       -0.000000   -0.949775    0.000000
      6          6           0       -1.206552   -0.250017    0.000000
      7         17           0       -2.712596   -1.148962    0.000000
      8         17           0       -2.721254    1.994178    0.000000
      9         17           0        2.716037    2.022757   -0.000000
     10         17           0        2.721102   -1.131323   -0.000000
     11         17           0        0.009041   -2.704795    0.000000
 ---------------------------------------------------------------------
 Rotational constants (GHZ):           0.7062495           0.4593436           0.2783228
 Standard basis: 6-311++G(d,p) (5D, 7F)
 There are   217 symmetry adapted cartesian basis functions of A'  symmetry.
 There are    76 symmetry adapted cartesian basis functions of A"  symmetry.
 There are   206 symmetry adapted basis functions of A'  symmetry.
 There are    76 symmetry adapted basis functions of A"  symmetry.
   282 basis functions,   481 primitive gaussians,   293 cartesian basis functions
    61 alpha electrons       61 beta electrons
       nuclear repulsion energy      1050.4962096845 Hartrees.
 NAtoms=   11 NActive=   11 NUniq=   11 SFac= 1.00D+00 NAtFMM=   60 NAOKFM=F Big=F
 Integral buffers will be    131072 words long.
 Raffenetti 2 integral format.
 Two-electron integral symmetry is turned on.
 One-electron integrals computed using PRISM.
 NBasis=   282 RedAO= T EigKep=  1.88D-06  NBF=   206    76
 NBsUse=   280 1.00D-06 EigRej=  6.63D-07 NBFU=   204    76
 Initial guess from the checkpoint file:  "frequency_chks/Hexachlorobenzene_anion_product_Freq.chk"
 B after Tr=     0.000000   -0.000000    0.000000
         Rot=    1.000000    0.000000    0.000000   -0.000073 Ang=  -0.01 deg.
 Initial guess orbital symmetries:
       Occupied  (A') (A') (A') (A') (A') (A') (A') (A') (A') (A')
                 (A') (A') (A') (A') (A') (A') (A') (A") (A') (A')
                 (A') (A") (A') (A") (A') (A') (A') (A") (A') (A")
                 (A') (A') (A') (A') (A') (A') (A') (A') (A') (A')
                 (A') (A') (A') (A') (A") (A') (A') (A") (A') (A")
                 (A') (A') (A") (A") (A') (A') (A") (A') (A") (A")
                 (A')
       Virtual   (A') (A') (A') (A") (A') (A") (A') (A') (A") (A')
                 (A") (A') (A") (A') (A') (A') (A") (A") (A') (A')
                 (A') (A") (A') (A') (A') (A') (A") (A') (A") (A')
                 (A") (A') (A') (A') (A') (A") (A") (A') (A') (A")
                 (A') (A') (A') (A') (A') (A') (A') (A') (A') (A')
                 (A') (A') (A') (A') (A') (A") (A') (A') (A") (A')
                 (A') (A") (A') (A') (A') (A') (A") (A") (A') (A')
                 (A") (A') (A") (A") (A') (A") (A") (A') (A') (A')
                 (A") (A') (A') (A') (A") (A') (A') (A") (A') (A')
                 (A") (A') (A") (A') (A") (A') (A') (A") (A") (A")
                 (A') (A') (A") (A') (A') (A') (A') (A') (A') (A')
                 (A') (A") (A') (A") (A') (A') (A') (A') (A') (A')
                 (A") (A') (A') (A') (A") (A') (A") (A') (A") (A")
                 (A') (A') (A') (A') (A') (A') (A") (A") (A') (A')
                 (A') (A') (A") (A") (A") (A') (A') (A') (A") (A')
                 (A') (A") (A") (A") (A') (A") (A") (A') (A') (A')
                 (A') (A') (A') (A') (A') (A') (A') (A') (A") (A')
                 (A") (A") (A") (A") (A') (A") (A') (A') (A') (A')
                 (A') (A') (A') (A') (A') (A') (A') (A') (A') (A')
                 (A') (A') (A') (A') (A') (A') (A') (A') (A') (A")
                 (A") (A") (A") (A") (A') (A') (A') (A') (A') (A')
                 (A') (A') (A') (A') (A') (A') (A') (A') (A')
 Requested convergence on RMS density matrix=1.00D-08 within 128 cycles.
 Requested convergence on MAX density matrix=1.00D-06.
 Requested convergence on             energy=1.00D-06.
 No special actions if energy rises.
 SCF Done:  E(RM062X) =  -2529.60238157     A.U. after   13 cycles
            NFock= 13  Conv=0.40D-08     -V/T= 2.0022
 Calling FoFJK, ICntrl=      2127 FMM=F ISym2X=1 I1Cent= 0 IOpClX= 0 NMat=1 NMatS=1 NMatT=0.
 ***** Axes restored to original set *****
 -------------------------------------------------------------------
 Center     Atomic                   Forces (Hartrees/Bohr)
 Number     Number              X              Y              Z
 -------------------------------------------------------------------
      1        6          -0.005730002   -0.005587524   -0.000000000
      2        6           0.000389868   -0.000068080    0.000000000
      3        6           0.000086380   -0.000212174   -0.000000000
      4        6          -0.003495071   -0.000778482   -0.000000000
      5        6          -0.006894741    0.001249467   -0.000000000
      6        6           0.000018364    0.004107183    0.000000000
      7       17           0.000011576   -0.001068408   -0.000000000
      8       17           0.006791315    0.004231783    0.000000000
      9       17           0.000027604   -0.000400510   -0.000000000
     10       17           0.003149870    0.001470360    0.000000000
     11       17           0.005644838   -0.002943615    0.000000000
 -------------------------------------------------------------------
 Cartesian Forces:  Max     0.006894741 RMS     0.002812297

 GradGradGradGradGradGradGradGradGradGradGradGradGradGradGradGradGradGrad
 Berny optimization.
 Using GEDIIS/GDIIS optimizer.
 FormGI is forming the generalized inverse of G from B-inverse, IUseBI=4.
 Internal  Forces:  Max     0.008000303 RMS     0.001642061
 Search for a local minimum.
 Step number  13 out of a maximum of   57
 All quantities printed in internal units (Hartrees-Bohrs-Radians)
 Mixed Optimization -- RFO/linear search
 Update second derivatives using D2CorX and points    6    7    8    9   10
                                                     11   12   13
 DE= -3.39D-05 DEPred=-2.28D-05 R= 1.49D+00
 TightC=F SS=  1.41D+00  RLast= 1.18D-02 DXNew= 2.4000D+00 3.5425D-02
 Trust test= 1.49D+00 RLast= 1.18D-02 DXMaxT set to 1.43D+00
 ITU=  1  1  1  1  1  1  1  1  1  0  0  1  0
 Use linear search instead of GDIIS.
     Eigenvalues ---    0.02237   0.02241   0.02246   0.02249   0.02252
     Eigenvalues ---    0.02262   0.02262   0.02262   0.14663   0.18491
     Eigenvalues ---    0.24248   0.25028   0.25429   0.25870   0.26140
     Eigenvalues ---    0.27126   0.28905   0.34185   0.38290   0.41721
     Eigenvalues ---    0.45811   0.47386   0.48604   0.53970   0.58456
     Eigenvalues ---    3.30470  12.00962
 RFO step:  Lambda=-4.18002001D-05 EMin= 2.23723261D-02
 Quartic linear search produced a step of  0.82083.
 Iteration  1 RMS(Cart)=  0.00133422 RMS(Int)=  0.00000085
 Iteration  2 RMS(Cart)=  0.00000096 RMS(Int)=  0.00000059
 ClnCor:  largest displacement from symmetrization is 8.58D-13 for atom     7.
 Variable       Old X    -DE/DX   Delta X   Delta X   Delta X     New X
                                 (Linear)    (Quad)   (Total)
    R1        2.60117   0.00016  -0.00062  -0.00023  -0.00085   2.60032
    R2        2.63572   0.00177  -0.00238   0.00104  -0.00134   2.63438
    R3        3.34469   0.00800   0.00356   0.00291   0.00647   3.35116
    R4        2.59372   0.00032   0.00017   0.00059   0.00076   2.59448
    R5        2.63534   0.00061  -0.00087   0.00007  -0.00080   2.63455
    R6        3.39203   0.00040  -0.00006   0.00070   0.00065   3.39268
    R7        2.64075  -0.00017   0.00131   0.00040   0.00171   2.64246
    R8        3.32208  -0.00347  -0.00051  -0.00062  -0.00114   3.32094
    R9        2.63577   0.00177  -0.00248   0.00146  -0.00101   2.63475
   R10        3.31655  -0.00636  -0.00148  -0.00147  -0.00295   3.31360
   R11        3.31445  -0.00107   0.00610   0.00089   0.00699   3.32144
    A1        2.16947   0.00027  -0.00151   0.00059  -0.00091   2.16856
    A2        2.06912   0.00006  -0.00015   0.00038   0.00023   2.06935
    A3        2.04459  -0.00034   0.00165  -0.00097   0.00068   2.04527
    A4        2.00295   0.00003   0.00035  -0.00002   0.00033   2.00327
    A5        2.17959   0.00010  -0.00012  -0.00027  -0.00039   2.17920
    A6        2.06776  -0.00010   0.00008   0.00034   0.00041   2.06818
    A7        2.03584   0.00000   0.00004  -0.00007  -0.00003   2.03581
    A8        2.06036   0.00025   0.00001   0.00069   0.00069   2.06105
    A9        2.14306  -0.00055   0.00056  -0.00163  -0.00107   2.14199
   A10        2.07976   0.00030  -0.00057   0.00095   0.00038   2.08014
   A11        2.08475   0.00016  -0.00176  -0.00038  -0.00215   2.08260
   A12        2.09693   0.00038  -0.00016   0.00081   0.00064   2.09757
   A13        2.10151  -0.00054   0.00193  -0.00043   0.00150   2.10301
   A14        2.06925  -0.00082   0.00303  -0.00060   0.00243   2.07168
   A15        2.13603   0.00040  -0.00099  -0.00014  -0.00113   2.13490
   A16        2.07790   0.00042  -0.00204   0.00075  -0.00129   2.07661
    D1       -0.00000   0.00000   0.00000   0.00000   0.00000   0.00000
    D2        3.14159   0.00000   0.00000   0.00000   0.00000   3.14159
    D3       -0.00000  -0.00000   0.00000  -0.00000   0.00000   0.00000
    D4        3.14159  -0.00000   0.00000  -0.00000   0.00000   3.14159
    D5        3.14159  -0.00000   0.00000  -0.00000   0.00000   3.14159
    D6       -0.00000  -0.00000   0.00000  -0.00000   0.00000   0.00000
    D7        0.00000   0.00000   0.00000   0.00000  -0.00000   0.00000
    D8        3.14159   0.00000   0.00000   0.00000   0.00000   3.14159
    D9       -0.00000  -0.00000   0.00000  -0.00000   0.00000   0.00000
   D10        3.14159  -0.00000   0.00000   0.00000   0.00000   3.14159
   D11        3.14159  -0.00000   0.00000  -0.00000   0.00000   3.14159
   D12       -0.00000  -0.00000   0.00000   0.00000   0.00000   0.00000
   D13       -0.00000   0.00000   0.00000   0.00000   0.00000   0.00000
   D14        3.14159   0.00000   0.00000   0.00000   0.00000   3.14159
   D15        3.14159   0.00000   0.00000  -0.00000   0.00000   3.14159
   D16        0.00000   0.00000   0.00000  -0.00000  -0.00000   0.00000
   D17        0.00000   0.00000   0.00000  -0.00000  -0.00000   0.00000
   D18        3.14159   0.00000   0.00000  -0.00000   0.00000   3.14159
   D19        3.14159   0.00000   0.00000   0.00000   0.00000   3.14159
   D20       -0.00000   0.00000   0.00000  -0.00000   0.00000   0.00000
         Item               Value     Threshold  Converged?
 Maximum Force            0.008000     0.000450     NO 
 RMS     Force            0.001642     0.000300     NO 
 Maximum Displacement     0.004700     0.001800     NO 
 RMS     Displacement     0.001334     0.001200     NO 
 Predicted change in Energy=-2.905941D-05
 GradGradGradGradGradGradGradGradGradGradGradGradGradGradGradGradGradGrad

                          Input orientation:                          
 ---------------------------------------------------------------------
 Center     Atomic      Atomic             Coordinates (Angstroms)
 Number     Number       Type             X           Y           Z
 ---------------------------------------------------------------------
      1          6           0        1.241646    0.624654    0.000000
      2          6           0        1.300896   -0.750101   -0.000000
      3          6           0        0.080296   -1.378669   -0.000000
      4          6           0       -1.151866   -0.726434   -0.000000
      5          6           0       -1.156639    0.671890    0.000000
      6          6           0        0.056614    1.358876    0.000000
      7         17           0        0.040078    3.116427    0.000000
      8         17           0        2.761182    1.538876    0.000000
      9         17           0        0.041107   -3.173570   -0.000000
     10         17           0       -2.683228   -1.588565   -0.000000
     11         17           0       -2.675404    1.548275    0.000000
 ---------------------------------------------------------------------
                    Distance matrix (angstroms):
                    1          2          3          4          5
     1  C    0.000000
     2  C    1.376031   0.000000
     3  C    2.315607   1.372940   0.000000
     4  C    2.748516   2.452877   1.394143   0.000000
     5  C    2.398751   2.839285   2.394745   1.398332   0.000000
     6  C    1.394053   2.448677   2.737647   2.410174   1.394250
     7  Cl   2.766351   4.066902   4.495276   4.023470   2.721744
     8  Cl   1.773355   2.715115   3.962224   4.521457   4.012604
     9  Cl   3.983441   2.731351   1.795329   2.722436   4.027674
    10  Cl   4.505882   4.071396   2.771484   1.757367   2.727660
    11  Cl   4.024470   4.592766   4.020061   2.737786   1.753481
                    6          7          8          9         10
     6  C    0.000000
     7  Cl   1.757629   0.000000
     8  Cl   2.710551   3.145325   0.000000
     9  Cl   4.532473   6.289997   5.441136   0.000000
    10  Cl   4.024194   5.436298   6.278732   3.151863   0.000000
    11  Cl   2.738575   3.135753   5.436594   5.447500   3.136849
                   11
    11  Cl   0.000000
 Stoichiometry    C6Cl5(1-)
 Framework group  CS[SG(C6Cl5)]
 Deg. of freedom    19
 Full point group                 CS      NOp   2
 Largest Abelian subgroup         CS      NOp   2
 Largest concise Abelian subgroup C1      NOp   1
                         Standard orientation:                         
 ---------------------------------------------------------------------
 Center     Atomic      Atomic             Coordinates (Angstroms)
 Number     Number       Type             X           Y           Z
 ---------------------------------------------------------------------
      1          6           0       -1.167752    1.144222    0.000000
      2          6           0       -0.010167    1.888170   -0.000000
      3          6           0        1.147846    1.150629   -0.000000
      4          6           0        1.205395   -0.242326   -0.000000
      5          6           0       -0.000000   -0.951097    0.000000
      6          6           0       -1.204769   -0.249340    0.000000
      7         17           0       -2.714518   -1.149293    0.000000
      8         17           0       -2.723139    1.996020    0.000000
      9         17           0        2.717938    2.021271   -0.000000
     10         17           0        2.721747   -1.130589   -0.000000
     11         17           0        0.008365   -2.704559    0.000000
 ---------------------------------------------------------------------
 Rotational constants (GHZ):           0.7063046           0.4588527           0.2781511
 Standard basis: 6-311++G(d,p) (5D, 7F)
 There are   217 symmetry adapted cartesian basis functions of A'  symmetry.
 There are    76 symmetry adapted cartesian basis functions of A"  symmetry.
 There are   206 symmetry adapted basis functions of A'  symmetry.
 There are    76 symmetry adapted basis functions of A"  symmetry.
   282 basis functions,   481 primitive gaussians,   293 cartesian basis functions
    61 alpha electrons       61 beta electrons
       nuclear repulsion energy      1050.2196138334 Hartrees.
 NAtoms=   11 NActive=   11 NUniq=   11 SFac= 1.00D+00 NAtFMM=   60 NAOKFM=F Big=F
 Integral buffers will be    131072 words long.
 Raffenetti 2 integral format.
 Two-electron integral symmetry is turned on.
 One-electron integrals computed using PRISM.
 NBasis=   282 RedAO= T EigKep=  1.89D-06  NBF=   206    76
 NBsUse=   280 1.00D-06 EigRej=  6.61D-07 NBFU=   204    76
 Initial guess from the checkpoint file:  "frequency_chks/Hexachlorobenzene_anion_product_Freq.chk"
 B after Tr=    -0.000000    0.000000   -0.000000
         Rot=    1.000000   -0.000000    0.000000    0.000113 Ang=   0.01 deg.
 Initial guess orbital symmetries:
       Occupied  (A') (A') (A') (A') (A') (A') (A') (A') (A') (A')
                 (A') (A') (A') (A') (A') (A') (A') (A") (A') (A')
                 (A') (A") (A") (A') (A') (A') (A') (A") (A') (A")
                 (A') (A') (A') (A') (A') (A') (A') (A') (A') (A')
                 (A') (A') (A') (A') (A") (A') (A') (A") (A') (A")
                 (A') (A') (A") (A") (A') (A') (A") (A') (A") (A")
                 (A')
       Virtual   (A') (A') (A') (A") (A') (A") (A') (A') (A") (A')
                 (A") (A') (A") (A') (A') (A') (A") (A") (A') (A')
                 (A') (A") (A') (A') (A') (A') (A") (A') (A") (A')
                 (A') (A") (A') (A') (A') (A") (A") (A') (A') (A")
                 (A') (A') (A') (A') (A') (A') (A') (A') (A') (A')
                 (A') (A') (A') (A') (A') (A") (A') (A') (A") (A')
                 (A') (A") (A') (A') (A') (A') (A") (A") (A') (A')
                 (A") (A') (A") (A") (A') (A") (A") (A') (A') (A')
                 (A") (A') (A') (A') (A") (A') (A') (A") (A') (A')
                 (A") (A') (A") (A') (A") (A') (A') (A") (A") (A")
                 (A') (A') (A') (A") (A') (A') (A') (A') (A') (A')
                 (A') (A") (A') (A') (A") (A') (A') (A') (A') (A')
                 (A") (A') (A') (A') (A") (A') (A") (A') (A") (A")
                 (A') (A') (A') (A') (A') (A') (A") (A") (A') (A')
                 (A') (A') (A") (A") (A") (A') (A') (A') (A") (A')
                 (A') (A") (A") (A") (A') (A") (A") (A') (A') (A')
                 (A') (A') (A') (A') (A') (A') (A') (A') (A") (A')
                 (A") (A") (A") (A") (A') (A") (A') (A') (A') (A')
                 (A') (A') (A') (A') (A') (A') (A') (A') (A') (A')
                 (A') (A') (A') (A') (A') (A') (A') (A') (A') (A")
                 (A") (A") (A") (A") (A') (A') (A') (A') (A') (A')
                 (A') (A') (A') (A') (A') (A') (A') (A') (A')
 Requested convergence on RMS density matrix=1.00D-08 within 128 cycles.
 Requested convergence on MAX density matrix=1.00D-06.
 Requested convergence on             energy=1.00D-06.
 No special actions if energy rises.
 SCF Done:  E(RM062X) =  -2529.60242833     A.U. after   12 cycles
            NFock= 12  Conv=0.73D-08     -V/T= 2.0022
 Calling FoFJK, ICntrl=      2127 FMM=F ISym2X=1 I1Cent= 0 IOpClX= 0 NMat=1 NMatS=1 NMatT=0.
 ***** Axes restored to original set *****
 -------------------------------------------------------------------
 Center     Atomic                   Forces (Hartrees/Bohr)
 Number     Number              X              Y              Z
 -------------------------------------------------------------------
      1        6          -0.004672941   -0.005464223   -0.000000000
      2        6           0.000292466   -0.000233170   -0.000000000
      3        6           0.000541182   -0.000123131    0.000000000
      4        6          -0.003618185   -0.000272438   -0.000000000
      5        6          -0.006455547    0.000134457   -0.000000000
      6        6           0.000052809    0.006169660    0.000000000
      7       17           0.000001226   -0.002348035   -0.000000000
      8       17           0.005673189    0.003599413    0.000000000
      9       17           0.000128359   -0.000237900   -0.000000000
     10       17           0.002829454    0.001512589    0.000000000
     11       17           0.005227988   -0.002737222    0.000000000
 -------------------------------------------------------------------
 Cartesian Forces:  Max     0.006455547 RMS     0.002701921

 GradGradGradGradGradGradGradGradGradGradGradGradGradGradGradGradGradGrad
 Berny optimization.
 Using GEDIIS/GDIIS optimizer.
 FormGI is forming the generalized inverse of G from B-inverse, IUseBI=4.
 Internal  Forces:  Max     0.006716275 RMS     0.001519216
 Search for a local minimum.
 Step number  14 out of a maximum of   57
 All quantities printed in internal units (Hartrees-Bohrs-Radians)
 Mixed Optimization -- RFO/linear search
 Update second derivatives using D2CorX and points    6    7    8    9   10
                                                     11   12   13   14
 DE= -4.68D-05 DEPred=-2.91D-05 R= 1.61D+00
 TightC=F SS=  1.41D+00  RLast= 1.13D-02 DXNew= 2.4000D+00 3.4004D-02
 Trust test= 1.61D+00 RLast= 1.13D-02 DXMaxT set to 1.43D+00
 ITU=  1  1  1  1  1  1  1  1  1  1  0  0  1  0
 Use linear search instead of GDIIS.
     Eigenvalues ---    0.02237   0.02241   0.02246   0.02249   0.02252
     Eigenvalues ---    0.02262   0.02262   0.02262   0.15334   0.17317
     Eigenvalues ---    0.23903   0.25027   0.25264   0.26042   0.26354
     Eigenvalues ---    0.27644   0.28282   0.33984   0.38203   0.41376
     Eigenvalues ---    0.46110   0.47351   0.48494   0.53445   0.55407
     Eigenvalues ---    1.83170  12.01067
 RFO step:  Lambda=-5.81305725D-05 EMin= 2.23723484D-02
 Quartic linear search produced a step of  1.65013.
 Iteration  1 RMS(Cart)=  0.00249084 RMS(Int)=  0.00000121
 Iteration  2 RMS(Cart)=  0.00000173 RMS(Int)=  0.00000060
 Iteration  3 RMS(Cart)=  0.00000000 RMS(Int)=  0.00000060
 ClnCor:  largest displacement from symmetrization is 1.59D-12 for atom     7.
 Variable       Old X    -DE/DX   Delta X   Delta X   Delta X     New X
                                 (Linear)    (Quad)   (Total)
    R1        2.60032   0.00007  -0.00140  -0.00045  -0.00186   2.59847
    R2        2.63438   0.00202  -0.00221   0.00219  -0.00002   2.63436
    R3        3.35116   0.00672   0.01067   0.00365   0.01432   3.36548
    R4        2.59448   0.00002   0.00125   0.00022   0.00147   2.59595
    R5        2.63455   0.00094  -0.00131   0.00117  -0.00014   2.63441
    R6        3.39268   0.00024   0.00107   0.00053   0.00159   3.39427
    R7        2.64246  -0.00071   0.00283  -0.00027   0.00256   2.64503
    R8        3.32094  -0.00321  -0.00188  -0.00076  -0.00264   3.31830
    R9        2.63475   0.00201  -0.00167   0.00195   0.00027   2.63502
   R10        3.31360  -0.00590  -0.00487  -0.00183  -0.00670   3.30690
   R11        3.32144  -0.00235   0.01153  -0.00216   0.00937   3.33081
    A1        2.16856   0.00044  -0.00151   0.00136  -0.00015   2.16841
    A2        2.06935   0.00004   0.00038  -0.00045  -0.00006   2.06929
    A3        2.04527  -0.00048   0.00112  -0.00091   0.00021   2.04548
    A4        2.00327  -0.00004   0.00054  -0.00013   0.00041   2.00368
    A5        2.17920   0.00019  -0.00064  -0.00037  -0.00101   2.17819
    A6        2.06818  -0.00031   0.00068  -0.00045   0.00023   2.06841
    A7        2.03581   0.00012  -0.00004   0.00082   0.00078   2.03659
    A8        2.06105   0.00017   0.00114   0.00058   0.00172   2.06278
    A9        2.14199  -0.00019  -0.00176  -0.00029  -0.00205   2.13994
   A10        2.08014   0.00002   0.00062  -0.00030   0.00033   2.08047
   A11        2.08260   0.00040  -0.00354   0.00042  -0.00312   2.07948
   A12        2.09757   0.00021   0.00106   0.00068   0.00175   2.09932
   A13        2.10301  -0.00061   0.00248  -0.00110   0.00138   2.10438
   A14        2.07168  -0.00116   0.00401  -0.00186   0.00215   2.07383
   A15        2.13490   0.00061  -0.00187   0.00164  -0.00024   2.13466
   A16        2.07661   0.00055  -0.00213   0.00022  -0.00191   2.07470
    D1        0.00000   0.00000   0.00000  -0.00000  -0.00000   0.00000
    D2        3.14159   0.00000   0.00000   0.00000   0.00000   3.14159
    D3       -0.00000  -0.00000   0.00000   0.00000   0.00000   0.00000
    D4        3.14159  -0.00000   0.00000   0.00000   0.00000   3.14159
    D5        3.14159  -0.00000   0.00000  -0.00000   0.00000   3.14159
    D6        0.00000  -0.00000   0.00000   0.00000  -0.00000   0.00000
    D7       -0.00000   0.00000   0.00000  -0.00000   0.00000   0.00000
    D8        3.14159  -0.00000   0.00000  -0.00000   0.00000   3.14159
    D9        0.00000   0.00000   0.00000   0.00000   0.00000   0.00000
   D10        3.14159  -0.00000   0.00000   0.00000   0.00000   3.14159
   D11        3.14159   0.00000   0.00000   0.00000   0.00000   3.14159
   D12       -0.00000   0.00000   0.00000   0.00000   0.00000   0.00000
   D13        0.00000   0.00000   0.00000  -0.00000  -0.00000   0.00000
   D14        3.14159  -0.00000   0.00000  -0.00000   0.00000   3.14159
   D15        3.14159   0.00000   0.00000  -0.00000   0.00000   3.14159
   D16       -0.00000  -0.00000   0.00000  -0.00000   0.00000   0.00000
   D17        0.00000  -0.00000   0.00000  -0.00000   0.00000   0.00000
   D18        3.14159  -0.00000   0.00000  -0.00000   0.00000   3.14159
   D19        3.14159   0.00000   0.00000   0.00000   0.00000   3.14159
   D20       -0.00000   0.00000   0.00000  -0.00000   0.00000   0.00000
         Item               Value     Threshold  Converged?
 Maximum Force            0.006716     0.000450     NO 
 RMS     Force            0.001519     0.000300     NO 
 Maximum Displacement     0.010932     0.001800     NO 
 RMS     Displacement     0.002490     0.001200     NO 
 Predicted change in Energy=-5.442932D-05
 GradGradGradGradGradGradGradGradGradGradGradGradGradGradGradGradGradGrad

                          Input orientation:                          
 ---------------------------------------------------------------------
 Center     Atomic      Atomic             Coordinates (Angstroms)
 Number     Number       Type             X           Y           Z
 ---------------------------------------------------------------------
      1          6           0        1.240869    0.623504    0.000000
      2          6           0        1.300058   -0.750270   -0.000000
      3          6           0        0.079017   -1.379678   -0.000000
      4          6           0       -1.152679   -0.726725   -0.000000
      5          6           0       -1.159013    0.672949    0.000000
      6          6           0        0.055746    1.357562    0.000000
      7         17           0        0.039343    3.120073    0.000000
      8         17           0        2.766967    1.541517    0.000000
      9         17           0        0.040106   -3.175429   -0.000000
     10         17           0       -2.681583   -1.590369   -0.000000
     11         17           0       -2.674149    1.548526    0.000000
 ---------------------------------------------------------------------
                    Distance matrix (angstroms):
                    1          2          3          4          5
     1  C    0.000000
     2  C    1.375049   0.000000
     3  C    2.315737   1.373716   0.000000
     4  C    2.748125   2.452851   1.394068   0.000000
     5  C    2.400391   2.841229   2.397081   1.399688   0.000000
     6  C    1.394043   2.447707   2.737339   2.409262   1.394394
     7  Cl   2.770653   4.070498   4.499926   4.027253   2.724788
     8  Cl   1.780933   2.721049   3.969692   4.528636   4.020911
     9  Cl   3.984184   2.732924   1.796172   2.723764   4.030868
    10  Cl   4.504094   4.069304   2.768628   1.755969   2.727788
    11  Cl   4.022814   4.591164   4.019242   2.737085   1.749936
                    6          7          8          9         10
     6  C    0.000000
     7  Cl   1.762587   0.000000
     8  Cl   2.717454   3.151471   0.000000
     9  Cl   4.533018   6.295502   5.448426   0.000000
    10  Cl   4.022843   5.439825   6.284537   3.149604   0.000000
    11  Cl   2.736566   3.135729   5.441121   5.448205   3.138904
                   11
    11  Cl   0.000000
 Stoichiometry    C6Cl5(1-)
 Framework group  CS[SG(C6Cl5)]
 Deg. of freedom    19
 Full point group                 CS      NOp   2
 Largest Abelian subgroup         CS      NOp   2
 Largest concise Abelian subgroup C1      NOp   1
                         Standard orientation:                         
 ---------------------------------------------------------------------
 Center     Atomic      Atomic             Coordinates (Angstroms)
 Number     Number       Type             X           Y           Z
 ---------------------------------------------------------------------
      1          6           0       -1.164832    1.144725   -0.000000
      2          6           0       -0.007421    1.887125    0.000000
      3          6           0        1.150901    1.148623    0.000000
      4          6           0        1.206389   -0.244341    0.000000
      5          6           0       -0.000000   -0.954095   -0.000000
      6          6           0       -1.202869   -0.248800   -0.000000
      7         17           0       -2.717749   -1.149828   -0.000000
      8         17           0       -2.726060    2.001633   -0.000000
      9         17           0        2.722340    2.018574    0.000000
     10         17           0        2.722044   -1.131030    0.000000
     11         17           0        0.005719   -2.704021   -0.000000
 ---------------------------------------------------------------------
 Rotational constants (GHZ):           0.7059386           0.4580062           0.2777832
 Standard basis: 6-311++G(d,p) (5D, 7F)
 There are   217 symmetry adapted cartesian basis functions of A'  symmetry.
 There are    76 symmetry adapted cartesian basis functions of A"  symmetry.
 There are   206 symmetry adapted basis functions of A'  symmetry.
 There are    76 symmetry adapted basis functions of A"  symmetry.
   282 basis functions,   481 primitive gaussians,   293 cartesian basis functions
    61 alpha electrons       61 beta electrons
       nuclear repulsion energy      1049.6121612678 Hartrees.
 NAtoms=   11 NActive=   11 NUniq=   11 SFac= 1.00D+00 NAtFMM=   60 NAOKFM=F Big=F
 Integral buffers will be    131072 words long.
 Raffenetti 2 integral format.
 Two-electron integral symmetry is turned on.
 One-electron integrals computed using PRISM.
 NBasis=   282 RedAO= T EigKep=  1.90D-06  NBF=   206    76
 NBsUse=   280 1.00D-06 EigRej=  6.60D-07 NBFU=   204    76
 Initial guess from the checkpoint file:  "frequency_chks/Hexachlorobenzene_anion_product_Freq.chk"
 B after Tr=     0.000000    0.000000    0.000000
         Rot=    1.000000    0.000000    0.000000    0.000404 Ang=   0.05 deg.
 Initial guess orbital symmetries:
       Occupied  (A') (A') (A') (A') (A') (A') (A') (A') (A') (A')
                 (A') (A') (A') (A') (A') (A') (A') (A") (A') (A')
                 (A') (A") (A") (A') (A') (A') (A') (A") (A') (A")
                 (A') (A') (A') (A') (A') (A') (A') (A') (A') (A')
                 (A') (A') (A') (A') (A") (A') (A') (A") (A') (A")
                 (A') (A') (A") (A") (A') (A') (A") (A') (A") (A")
                 (A')
       Virtual   (A') (A') (A') (A") (A') (A") (A') (A') (A") (A')
                 (A") (A') (A") (A') (A') (A') (A") (A") (A') (A')
                 (A') (A") (A') (A') (A') (A') (A") (A') (A") (A')
                 (A') (A") (A') (A') (A') (A") (A") (A') (A') (A")
                 (A') (A') (A') (A') (A') (A') (A') (A') (A') (A')
                 (A') (A') (A') (A') (A') (A") (A') (A') (A") (A')
                 (A') (A") (A') (A') (A') (A') (A") (A") (A') (A')
                 (A") (A') (A") (A") (A') (A") (A") (A') (A') (A')
                 (A") (A') (A') (A') (A") (A') (A') (A") (A') (A')
                 (A") (A') (A") (A') (A") (A') (A') (A") (A") (A")
                 (A') (A') (A') (A") (A') (A') (A') (A') (A') (A')
                 (A') (A") (A') (A') (A") (A') (A') (A') (A') (A')
                 (A") (A') (A') (A') (A") (A') (A") (A') (A") (A")
                 (A') (A') (A') (A') (A') (A') (A") (A") (A') (A')
                 (A') (A') (A") (A") (A") (A') (A') (A') (A') (A")
                 (A') (A") (A") (A") (A') (A") (A") (A') (A') (A')
                 (A') (A') (A') (A') (A') (A') (A') (A') (A") (A')
                 (A") (A") (A") (A") (A') (A") (A') (A') (A') (A')
                 (A') (A') (A') (A') (A') (A') (A') (A') (A') (A')
                 (A') (A') (A') (A') (A') (A') (A') (A') (A') (A")
                 (A") (A") (A") (A") (A') (A') (A') (A') (A') (A')
                 (A') (A') (A') (A') (A') (A') (A') (A') (A')
 Requested convergence on RMS density matrix=1.00D-08 within 128 cycles.
 Requested convergence on MAX density matrix=1.00D-06.
 Requested convergence on             energy=1.00D-06.
 No special actions if energy rises.
 SCF Done:  E(RM062X) =  -2529.60250698     A.U. after   13 cycles
            NFock= 13  Conv=0.81D-08     -V/T= 2.0023
 Calling FoFJK, ICntrl=      2127 FMM=F ISym2X=1 I1Cent= 0 IOpClX= 0 NMat=1 NMatS=1 NMatT=0.
 ***** Axes restored to original set *****
 -------------------------------------------------------------------
 Center     Atomic                   Forces (Hartrees/Bohr)
 Number     Number              X              Y              Z
 -------------------------------------------------------------------
      1        6          -0.003165441   -0.004354937   -0.000000000
      2        6          -0.000059851   -0.000469822   -0.000000000
      3        6           0.001116207    0.000305435    0.000000000
      4        6          -0.003354929    0.000227204   -0.000000000
      5        6          -0.004668080   -0.001292694   -0.000000000
      6        6           0.000255769    0.008044406    0.000000000
      7       17           0.000138283   -0.004191009   -0.000000000
      8       17           0.003302217    0.002329485    0.000000000
      9       17           0.000166686    0.000216194    0.000000000
     10       17           0.002167080    0.001457283    0.000000000
     11       17           0.004102059   -0.002271544    0.000000000
 -------------------------------------------------------------------
 Cartesian Forces:  Max     0.008044406 RMS     0.002417688

 GradGradGradGradGradGradGradGradGradGradGradGradGradGradGradGradGradGrad
 Berny optimization.
 Using GEDIIS/GDIIS optimizer.
 FormGI is forming the generalized inverse of G from B-inverse, IUseBI=4.
 Internal  Forces:  Max     0.004688228 RMS     0.001278225
 Search for a local minimum.
 Step number  15 out of a maximum of   57
 All quantities printed in internal units (Hartrees-Bohrs-Radians)
 Mixed Optimization -- RFO/linear search
 Update second derivatives using D2CorX and points    6    7    8    9   10
                                                     11   12   13   14   15
 DE= -7.87D-05 DEPred=-5.44D-05 R= 1.45D+00
 TightC=F SS=  1.41D+00  RLast= 1.98D-02 DXNew= 2.4000D+00 5.9377D-02
 Trust test= 1.45D+00 RLast= 1.98D-02 DXMaxT set to 1.43D+00
 ITU=  1  1  1  1  1  1  1  1  1  1  1  0  0  1  0
 Use linear search instead of GDIIS.
     Eigenvalues ---    0.02237   0.02241   0.02246   0.02249   0.02252
     Eigenvalues ---    0.02262   0.02262   0.02262   0.15142   0.17211
     Eigenvalues ---    0.23575   0.25031   0.25208   0.26000   0.26550
     Eigenvalues ---    0.27420   0.27853   0.34201   0.38167   0.40914
     Eigenvalues ---    0.46304   0.47521   0.48386   0.50895   0.54284
     Eigenvalues ---    1.39601  12.01120
 RFO step:  Lambda=-6.09359799D-05 EMin= 2.23723343D-02
 Quartic linear search produced a step of  0.59649.
 Iteration  1 RMS(Cart)=  0.00182602 RMS(Int)=  0.00000111
 Iteration  2 RMS(Cart)=  0.00000182 RMS(Int)=  0.00000034
 Iteration  3 RMS(Cart)=  0.00000000 RMS(Int)=  0.00000034
 ClnCor:  largest displacement from symmetrization is 3.60D-13 for atom     7.
 Variable       Old X    -DE/DX   Delta X   Delta X   Delta X     New X
                                 (Linear)    (Quad)   (Total)
    R1        2.59847  -0.00018  -0.00111  -0.00024  -0.00134   2.59712
    R2        2.63436   0.00134  -0.00001   0.00201   0.00200   2.63636
    R3        3.36548   0.00403   0.00854   0.00237   0.01091   3.37639
    R4        2.59595  -0.00063   0.00088   0.00005   0.00093   2.59687
    R5        2.63441   0.00087  -0.00008   0.00078   0.00069   2.63510
    R6        3.39427  -0.00022   0.00095   0.00051   0.00146   3.39574
    R7        2.64503  -0.00154   0.00153  -0.00083   0.00069   2.64572
    R8        3.31830  -0.00260  -0.00158  -0.00103  -0.00260   3.31570
    R9        2.63502   0.00173   0.00016   0.00254   0.00271   2.63773
   R10        3.30690  -0.00469  -0.00400  -0.00185  -0.00585   3.30105
   R11        3.33081  -0.00419   0.00559  -0.00484   0.00075   3.33156
    A1        2.16841   0.00069  -0.00009   0.00203   0.00195   2.17036
    A2        2.06929   0.00014  -0.00004   0.00019   0.00016   2.06945
    A3        2.04548  -0.00083   0.00013  -0.00223  -0.00210   2.04338
    A4        2.00368  -0.00027   0.00024  -0.00055  -0.00031   2.00337
    A5        2.17819   0.00038  -0.00060  -0.00002  -0.00062   2.17757
    A6        2.06841  -0.00046   0.00014  -0.00001   0.00013   2.06853
    A7        2.03659   0.00008   0.00046   0.00003   0.00049   2.03708
    A8        2.06278  -0.00009   0.00103   0.00030   0.00133   2.06410
    A9        2.13994   0.00039  -0.00122  -0.00092  -0.00214   2.13780
   A10        2.08047  -0.00030   0.00020   0.00062   0.00082   2.08128
   A11        2.07948   0.00072  -0.00186   0.00115  -0.00071   2.07877
   A12        2.09932  -0.00021   0.00104   0.00052   0.00156   2.10089
   A13        2.10438  -0.00051   0.00082  -0.00167  -0.00085   2.10353
   A14        2.07383  -0.00143   0.00128  -0.00291  -0.00163   2.07220
   A15        2.13466   0.00054  -0.00014   0.00100   0.00086   2.13552
   A16        2.07470   0.00089  -0.00114   0.00191   0.00077   2.07547
    D1       -0.00000  -0.00000   0.00000   0.00000   0.00000   0.00000
    D2        3.14159  -0.00000   0.00000   0.00000   0.00000   3.14159
    D3        0.00000   0.00000   0.00000  -0.00000  -0.00000   0.00000
    D4        3.14159   0.00000   0.00000   0.00000   0.00000   3.14159
    D5        3.14159   0.00000   0.00000  -0.00000   0.00000   3.14159
    D6       -0.00000   0.00000   0.00000  -0.00000   0.00000   0.00000
    D7       -0.00000  -0.00000   0.00000  -0.00000   0.00000   0.00000
    D8        3.14159  -0.00000   0.00000   0.00000   0.00000   3.14159
    D9        0.00000   0.00000   0.00000   0.00000   0.00000   0.00000
   D10        3.14159  -0.00000   0.00000   0.00000   0.00000   3.14159
   D11        3.14159   0.00000   0.00000  -0.00000   0.00000   3.14159
   D12       -0.00000   0.00000   0.00000  -0.00000   0.00000   0.00000
   D13       -0.00000  -0.00000   0.00000  -0.00000   0.00000   0.00000
   D14        3.14159  -0.00000   0.00000  -0.00000   0.00000   3.14159
   D15        3.14159   0.00000   0.00000  -0.00000   0.00000   3.14159
   D16       -0.00000  -0.00000   0.00000  -0.00000   0.00000   0.00000
   D17       -0.00000  -0.00000   0.00000   0.00000   0.00000   0.00000
   D18        3.14159  -0.00000   0.00000  -0.00000   0.00000   3.14159
   D19        3.14159   0.00000   0.00000   0.00000   0.00000   3.14159
   D20        0.00000   0.00000   0.00000  -0.00000  -0.00000   0.00000
         Item               Value     Threshold  Converged?
 Maximum Force            0.004688     0.000450     NO 
 RMS     Force            0.001278     0.000300     NO 
 Maximum Displacement     0.006514     0.001800     NO 
 RMS     Displacement     0.001826     0.001200     NO 
 Predicted change in Energy=-4.247250D-05
 GradGradGradGradGradGradGradGradGradGradGradGradGradGradGradGradGradGrad

                          Input orientation:                          
 ---------------------------------------------------------------------
 Center     Atomic      Atomic             Coordinates (Angstroms)
 Number     Number       Type             X           Y           Z
 ---------------------------------------------------------------------
      1          6           0        1.239862    0.622272    0.000000
      2          6           0        1.299542   -0.750769    0.000000
      3          6           0        0.078110   -1.380487   -0.000000
      4          6           0       -1.153551   -0.726683   -0.000000
      5          6           0       -1.160973    0.673352    0.000000
      6          6           0        0.054991    1.358745    0.000000
      7         17           0        0.039832    3.121665    0.000000
      8         17           0        2.770414    1.544083    0.000000
      9         17           0        0.039078   -3.177009   -0.000000
     10         17           0       -2.679880   -1.592081   -0.000000
     11         17           0       -2.672741    1.548570    0.000000
 ---------------------------------------------------------------------
                    Distance matrix (angstroms):
                    1          2          3          4          5
     1  C    0.000000
     2  C    1.374338   0.000000
     3  C    2.315321   1.374206   0.000000
     4  C    2.747382   2.453212   1.394435   0.000000
     5  C    2.401379   2.842931   2.398662   1.400055   0.000000
     6  C    1.395103   2.449277   2.739329   2.410308   1.395826
     7  Cl   2.772550   4.072176   4.502314   4.029137   2.726934
     8  Cl   1.786707   2.725768   3.975124   4.533639   4.026658
     9  Cl   3.984522   2.734119   1.796946   2.725153   4.033038
    10  Cl   4.501971   4.067384   2.766095   1.754592   2.727502
    11  Cl   4.020758   4.589771   4.018277   2.735820   1.746840
                    6          7          8          9         10
     6  C    0.000000
     7  Cl   1.762985   0.000000
     8  Cl   2.721741   3.153544   0.000000
     9  Cl   4.535782   6.298673   5.454256   0.000000
    10  Cl   4.023294   5.442080   6.288182   3.147178   0.000000
    11  Cl   2.734329   3.135711   5.443157   5.448399   3.140659
                   11
    11  Cl   0.000000
 Stoichiometry    C6Cl5(1-)
 Framework group  CS[SG(C6Cl5)]
 Deg. of freedom    19
 Full point group                 CS      NOp   2
 Largest Abelian subgroup         CS      NOp   2
 Largest concise Abelian subgroup C1      NOp   1
                         Standard orientation:                         
 ---------------------------------------------------------------------
 Center     Atomic      Atomic             Coordinates (Angstroms)
 Number     Number       Type             X           Y           Z
 ---------------------------------------------------------------------
      1          6           0       -1.161736    1.145240   -0.000000
      2          6           0       -0.004441    1.886504   -0.000000
      3          6           0        1.153584    1.146627    0.000000
      4          6           0        1.206885   -0.246788    0.000000
      5          6           0       -0.000000   -0.956424    0.000000
      6          6           0       -1.203422   -0.249241   -0.000000
      7         17           0       -2.720207   -1.147837   -0.000000
      8         17           0       -2.727602    2.005698   -0.000000
      9         17           0        2.726645    2.015243    0.000000
     10         17           0        2.721849   -1.131931    0.000000
     11         17           0        0.002537   -2.703262    0.000000
 ---------------------------------------------------------------------
 Rotational constants (GHZ):           0.7060646           0.4573602           0.2775649
 Standard basis: 6-311++G(d,p) (5D, 7F)
 There are   217 symmetry adapted cartesian basis functions of A'  symmetry.
 There are    76 symmetry adapted cartesian basis functions of A"  symmetry.
 There are   206 symmetry adapted basis functions of A'  symmetry.
 There are    76 symmetry adapted basis functions of A"  symmetry.
   282 basis functions,   481 primitive gaussians,   293 cartesian basis functions
    61 alpha electrons       61 beta electrons
       nuclear repulsion energy      1049.2905263208 Hartrees.
 NAtoms=   11 NActive=   11 NUniq=   11 SFac= 1.00D+00 NAtFMM=   60 NAOKFM=F Big=F
 Integral buffers will be    131072 words long.
 Raffenetti 2 integral format.
 Two-electron integral symmetry is turned on.
 One-electron integrals computed using PRISM.
 NBasis=   282 RedAO= T EigKep=  1.91D-06  NBF=   206    76
 NBsUse=   280 1.00D-06 EigRej=  6.62D-07 NBFU=   204    76
 Initial guess from the checkpoint file:  "frequency_chks/Hexachlorobenzene_anion_product_Freq.chk"
 B after Tr=     0.000000    0.000000    0.000000
         Rot=    1.000000    0.000000    0.000000    0.000493 Ang=   0.06 deg.
 Initial guess orbital symmetries:
       Occupied  (A') (A') (A') (A') (A') (A') (A') (A') (A') (A')
                 (A') (A') (A') (A') (A') (A') (A') (A") (A') (A')
                 (A') (A") (A') (A") (A') (A') (A') (A") (A') (A")
                 (A') (A') (A') (A') (A') (A') (A') (A') (A') (A')
                 (A') (A') (A') (A') (A") (A') (A') (A") (A') (A")
                 (A') (A') (A") (A") (A') (A') (A") (A') (A") (A")
                 (A')
       Virtual   (A') (A') (A') (A") (A') (A") (A') (A') (A") (A')
                 (A") (A') (A") (A') (A') (A') (A") (A") (A') (A')
                 (A') (A") (A') (A') (A') (A') (A") (A') (A") (A')
                 (A') (A") (A') (A') (A') (A") (A") (A') (A') (A")
                 (A') (A') (A') (A') (A') (A') (A') (A') (A') (A')
                 (A') (A') (A') (A') (A') (A") (A') (A') (A") (A')
                 (A') (A") (A') (A') (A') (A') (A") (A") (A') (A')
                 (A") (A') (A") (A") (A') (A") (A") (A') (A') (A')
                 (A") (A') (A') (A') (A") (A') (A') (A") (A') (A')
                 (A") (A') (A") (A') (A") (A') (A') (A") (A") (A")
                 (A') (A') (A') (A") (A') (A') (A') (A') (A') (A')
                 (A') (A") (A') (A') (A") (A') (A') (A') (A') (A')
                 (A") (A') (A') (A') (A") (A') (A") (A') (A") (A")
                 (A') (A') (A') (A') (A') (A') (A") (A") (A') (A')
                 (A') (A') (A") (A") (A") (A') (A') (A') (A') (A")
                 (A') (A") (A") (A") (A') (A") (A") (A') (A') (A')
                 (A') (A') (A') (A') (A') (A') (A') (A') (A") (A')
                 (A") (A") (A") (A") (A') (A") (A') (A') (A') (A')
                 (A') (A') (A') (A') (A') (A') (A') (A') (A') (A')
                 (A') (A') (A') (A') (A') (A') (A') (A') (A') (A")
                 (A") (A") (A") (A") (A') (A') (A') (A') (A') (A')
                 (A') (A') (A') (A') (A') (A') (A') (A') (A')
 Requested convergence on RMS density matrix=1.00D-08 within 128 cycles.
 Requested convergence on MAX density matrix=1.00D-06.
 Requested convergence on             energy=1.00D-06.
 No special actions if energy rises.
 SCF Done:  E(RM062X) =  -2529.60257337     A.U. after   12 cycles
            NFock= 12  Conv=0.81D-08     -V/T= 2.0023
 Calling FoFJK, ICntrl=      2127 FMM=F ISym2X=1 I1Cent= 0 IOpClX= 0 NMat=1 NMatS=1 NMatT=0.
 ***** Axes restored to original set *****
 -------------------------------------------------------------------
 Center     Atomic                   Forces (Hartrees/Bohr)
 Number     Number              X              Y              Z
 -------------------------------------------------------------------
      1        6          -0.002563448   -0.002876416   -0.000000000
      2        6          -0.000408042   -0.000544625   -0.000000000
      3        6           0.001407063    0.000700617    0.000000000
      4        6          -0.002733751    0.000159680   -0.000000000
      5        6          -0.002545977   -0.001316776   -0.000000000
      6        6           0.000330511    0.006943658    0.000000000
      7       17           0.000110499   -0.004604467   -0.000000000
      8       17           0.001759557    0.001338541    0.000000000
      9       17           0.000197927    0.000593688    0.000000000
     10       17           0.001516074    0.001423067    0.000000000
     11       17           0.002929587   -0.001816965   -0.000000000
 -------------------------------------------------------------------
 Cartesian Forces:  Max     0.006943658 RMS     0.001942487

 GradGradGradGradGradGradGradGradGradGradGradGradGradGradGradGradGradGrad
 Berny optimization.
 Using GEDIIS/GDIIS optimizer.
 FormGI is forming the generalized inverse of G from B-inverse, IUseBI=4.
 Internal  Forces:  Max     0.004605470 RMS     0.001075551
 Search for a local minimum.
 Step number  16 out of a maximum of   57
 All quantities printed in internal units (Hartrees-Bohrs-Radians)
 Mixed Optimization -- RFO/linear search
 Update second derivatives using D2CorX and points    6    7    8    9   10
                                                     11   12   13   14   15
                                                     16
 DE= -6.64D-05 DEPred=-4.25D-05 R= 1.56D+00
 TightC=F SS=  1.41D+00  RLast= 1.42D-02 DXNew= 2.4000D+00 4.2572D-02
 Trust test= 1.56D+00 RLast= 1.42D-02 DXMaxT set to 1.43D+00
 ITU=  1  1  1  1  1  1  1  1  1  1  1  1  0  0  1  0
 Use linear search instead of GDIIS.
     Eigenvalues ---    0.02237   0.02241   0.02246   0.02249   0.02252
     Eigenvalues ---    0.02262   0.02262   0.02262   0.13940   0.17821
     Eigenvalues ---    0.22413   0.25026   0.25201   0.25951   0.26827
     Eigenvalues ---    0.26951   0.27606   0.34442   0.36652   0.39427
     Eigenvalues ---    0.44773   0.46257   0.47695   0.48604   0.54324
     Eigenvalues ---    1.12644  12.01037
 RFO step:  Lambda=-5.39623775D-05 EMin= 2.23722095D-02
 Quartic linear search produced a step of  1.26171.
 Iteration  1 RMS(Cart)=  0.00213218 RMS(Int)=  0.00000258
 Iteration  2 RMS(Cart)=  0.00000390 RMS(Int)=  0.00000098
 Iteration  3 RMS(Cart)=  0.00000000 RMS(Int)=  0.00000098
 ClnCor:  largest displacement from symmetrization is 1.60D-13 for atom     7.
 Variable       Old X    -DE/DX   Delta X   Delta X   Delta X     New X
                                 (Linear)    (Quad)   (Total)
    R1        2.59712  -0.00044  -0.00169  -0.00039  -0.00209   2.59503
    R2        2.63636   0.00021   0.00253   0.00037   0.00289   2.63926
    R3        3.37639   0.00220   0.01377   0.00050   0.01427   3.39066
    R4        2.59687  -0.00116   0.00117  -0.00097   0.00019   2.59706
    R5        2.63510   0.00058   0.00087   0.00063   0.00151   2.63661
    R6        3.39574  -0.00060   0.00184  -0.00044   0.00141   3.39714
    R7        2.64572  -0.00188   0.00088  -0.00130  -0.00043   2.64529
    R8        3.31570  -0.00202  -0.00328  -0.00098  -0.00426   3.31144
    R9        2.63773   0.00063   0.00342   0.00056   0.00397   2.64170
   R10        3.30105  -0.00345  -0.00738  -0.00133  -0.00871   3.29234
   R11        3.33156  -0.00461   0.00095  -0.00671  -0.00577   3.32579
    A1        2.17036   0.00068   0.00246   0.00174   0.00420   2.17456
    A2        2.06945   0.00006   0.00020  -0.00059  -0.00039   2.06906
    A3        2.04338  -0.00074  -0.00265  -0.00115  -0.00381   2.03957
    A4        2.00337  -0.00041  -0.00039  -0.00084  -0.00123   2.00214
    A5        2.17757   0.00044  -0.00078   0.00049  -0.00029   2.17728
    A6        2.06853  -0.00053   0.00016  -0.00049  -0.00033   2.06821
    A7        2.03708   0.00009   0.00062  -0.00000   0.00062   2.03770
    A8        2.06410  -0.00035   0.00167  -0.00064   0.00103   2.06513
    A9        2.13780   0.00099  -0.00270   0.00131  -0.00140   2.13640
   A10        2.08128  -0.00064   0.00103  -0.00066   0.00037   2.08165
   A11        2.07877   0.00079  -0.00090   0.00153   0.00063   2.07940
   A12        2.10089  -0.00056   0.00197  -0.00053   0.00144   2.10233
   A13        2.10353  -0.00022  -0.00107  -0.00100  -0.00207   2.10146
   A14        2.07220  -0.00115  -0.00206  -0.00229  -0.00434   2.06786
   A15        2.13552   0.00045   0.00108   0.00141   0.00249   2.13801
   A16        2.07547   0.00070   0.00097   0.00088   0.00185   2.07732
    D1       -0.00000   0.00000   0.00000   0.00000   0.00000   0.00000
    D2        3.14159  -0.00000   0.00000   0.00000   0.00000   3.14159
    D3        0.00000   0.00000   0.00000  -0.00000   0.00000   0.00000
    D4        3.14159   0.00000   0.00000   0.00000   0.00000   3.14159
    D5        3.14159   0.00000   0.00000  -0.00000   0.00000   3.14159
    D6       -0.00000   0.00000   0.00000  -0.00000   0.00000   0.00000
    D7        0.00000  -0.00000   0.00000  -0.00000  -0.00000   0.00000
    D8        3.14159  -0.00000   0.00000   0.00000   0.00000   3.14159
    D9        0.00000   0.00000   0.00000  -0.00000   0.00000   0.00000
   D10        3.14159  -0.00000   0.00000  -0.00000   0.00000   3.14159
   D11        3.14159   0.00000   0.00000  -0.00000   0.00000   3.14159
   D12       -0.00000  -0.00000   0.00000  -0.00000   0.00000   0.00000
   D13       -0.00000   0.00000   0.00000   0.00000   0.00000   0.00000
   D14        3.14159   0.00000   0.00000   0.00000   0.00000   3.14159
   D15        3.14159   0.00000   0.00000   0.00000   0.00000   3.14159
   D16        0.00000   0.00000   0.00000   0.00000   0.00000   0.00000
   D17       -0.00000  -0.00000   0.00000  -0.00000   0.00000   0.00000
   D18        3.14159  -0.00000   0.00000  -0.00000   0.00000   3.14159
   D19        3.14159  -0.00000   0.00000  -0.00000   0.00000   3.14159
   D20        0.00000  -0.00000   0.00000  -0.00000  -0.00000   0.00000
         Item               Value     Threshold  Converged?
 Maximum Force            0.004605     0.000450     NO 
 RMS     Force            0.001076     0.000300     NO 
 Maximum Displacement     0.007142     0.001800     NO 
 RMS     Displacement     0.002132     0.001200     NO 
 Predicted change in Energy=-5.494865D-05
 GradGradGradGradGradGradGradGradGradGradGradGradGradGradGradGradGradGrad

                          Input orientation:                          
 ---------------------------------------------------------------------
 Center     Atomic      Atomic             Coordinates (Angstroms)
 Number     Number       Type             X           Y           Z
 ---------------------------------------------------------------------
      1          6           0        1.237819    0.620375    0.000000
      2          6           0        1.298943   -0.751498   -0.000000
      3          6           0        0.077332   -1.381089   -0.000000
      4          6           0       -1.154751   -0.726380   -0.000000
      5          6           0       -1.163006    0.673425    0.000000
      6          6           0        0.053946    1.361343    0.000000
      7         17           0        0.039915    3.121221    0.000000
      8         17           0        2.774193    1.547151    0.000000
      9         17           0        0.038622   -3.178362   -0.000000
     10         17           0       -2.678285   -1.592133   -0.000000
     11         17           0       -2.670046    1.547606    0.000000
 ---------------------------------------------------------------------
                    Distance matrix (angstroms):
                    1          2          3          4          5
     1  C    0.000000
     2  C    1.373233   0.000000
     3  C    2.313566   1.374307   0.000000
     4  C    2.745566   2.453823   1.395232   0.000000
     5  C    2.401411   2.844574   2.399889   1.399829   0.000000
     6  C    1.396634   2.452369   2.742532   2.412371   1.397929
     7  Cl   2.772942   4.072236   4.502466   4.028803   2.727402
     8  Cl   1.794258   2.731327   3.980911   4.539333   4.032981
     9  Cl   3.983526   2.734608   1.797690   2.726969   4.034870
    10  Cl   4.497895   4.065097   2.763686   1.752337   2.725587
    11  Cl   4.016362   4.586802   4.015637   2.732605   1.742229
                    6          7          8          9         10
     6  C    0.000000
     7  Cl   1.759934   0.000000
     8  Cl   2.726585   3.154992   0.000000
     9  Cl   4.539731   6.299584   5.460204   0.000000
    10  Cl   4.023445   5.440985   6.291631   3.146062   0.000000
    11  Cl   2.730353   3.133712   5.444239   5.447170   3.139750
                   11
    11  Cl   0.000000
 Stoichiometry    C6Cl5(1-)
 Framework group  CS[SG(C6Cl5)]
 Deg. of freedom    19
 Full point group                 CS      NOp   2
 Largest Abelian subgroup         CS      NOp   2
 Largest concise Abelian subgroup C1      NOp   1
                         Standard orientation:                         
 ---------------------------------------------------------------------
 Center     Atomic      Atomic             Coordinates (Angstroms)
 Number     Number       Type             X           Y           Z
 ---------------------------------------------------------------------
      1          6           0       -1.157110    1.145438    0.000000
      2          6           0       -0.000524    1.885761   -0.000000
      3          6           0        1.156455    1.144061   -0.000000
      4          6           0        1.207251   -0.250246   -0.000000
      5          6           0       -0.000000   -0.958812    0.000000
      6          6           0       -1.205121   -0.250371    0.000000
      7         17           0       -2.721083   -1.144365    0.000000
      8         17           0       -2.728996    2.010618    0.000000
      9         17           0        2.731208    2.011151   -0.000000
     10         17           0        2.719893   -1.134891   -0.000000
     11         17           0       -0.001357   -2.701041    0.000000
 ---------------------------------------------------------------------
 Rotational constants (GHZ):           0.7064198           0.4569730           0.2774770
 Standard basis: 6-311++G(d,p) (5D, 7F)
 There are   217 symmetry adapted cartesian basis functions of A'  symmetry.
 There are    76 symmetry adapted cartesian basis functions of A"  symmetry.
 There are   206 symmetry adapted basis functions of A'  symmetry.
 There are    76 symmetry adapted basis functions of A"  symmetry.
   282 basis functions,   481 primitive gaussians,   293 cartesian basis functions
    61 alpha electrons       61 beta electrons
       nuclear repulsion energy      1049.2349897360 Hartrees.
 NAtoms=   11 NActive=   11 NUniq=   11 SFac= 1.00D+00 NAtFMM=   60 NAOKFM=F Big=F
 Integral buffers will be    131072 words long.
 Raffenetti 2 integral format.
 Two-electron integral symmetry is turned on.
 One-electron integrals computed using PRISM.
 NBasis=   282 RedAO= T EigKep=  1.92D-06  NBF=   206    76
 NBsUse=   280 1.00D-06 EigRej=  6.67D-07 NBFU=   204    76
 Initial guess from the checkpoint file:  "frequency_chks/Hexachlorobenzene_anion_product_Freq.chk"
 B after Tr=     0.000000   -0.000000   -0.000000
         Rot=    1.000000   -0.000000    0.000000    0.000671 Ang=   0.08 deg.
 Initial guess orbital symmetries:
       Occupied  (A') (A') (A') (A') (A') (A') (A') (A') (A') (A')
                 (A') (A') (A') (A') (A') (A') (A') (A") (A') (A')
                 (A') (A") (A') (A") (A') (A') (A') (A") (A') (A")
                 (A') (A') (A') (A') (A') (A') (A') (A') (A') (A')
                 (A') (A') (A') (A') (A") (A') (A') (A") (A') (A")
                 (A') (A') (A") (A") (A') (A') (A") (A') (A") (A")
                 (A')
       Virtual   (A') (A') (A') (A") (A') (A") (A') (A') (A") (A')
                 (A") (A') (A") (A') (A') (A') (A") (A") (A') (A')
                 (A') (A") (A') (A') (A') (A') (A") (A') (A") (A')
                 (A') (A") (A') (A') (A') (A") (A") (A') (A') (A")
                 (A') (A') (A') (A') (A') (A') (A') (A') (A') (A')
                 (A') (A') (A') (A') (A') (A") (A') (A') (A") (A')
                 (A') (A") (A') (A') (A') (A') (A") (A") (A') (A')
                 (A") (A') (A") (A") (A') (A") (A") (A') (A') (A')
                 (A") (A') (A') (A') (A") (A') (A') (A") (A') (A')
                 (A") (A') (A") (A') (A") (A') (A') (A") (A") (A")
                 (A') (A') (A') (A") (A') (A') (A') (A') (A') (A')
                 (A') (A") (A') (A') (A") (A') (A') (A') (A') (A')
                 (A") (A') (A') (A') (A") (A') (A") (A') (A") (A")
                 (A') (A') (A') (A') (A') (A') (A") (A") (A') (A')
                 (A') (A') (A") (A") (A") (A') (A') (A') (A') (A")
                 (A') (A") (A") (A") (A') (A") (A") (A') (A') (A')
                 (A') (A') (A') (A') (A') (A') (A') (A') (A") (A')
                 (A") (A") (A") (A") (A') (A") (A') (A') (A') (A')
                 (A') (A') (A') (A') (A') (A') (A') (A') (A') (A')
                 (A') (A') (A') (A') (A') (A') (A') (A') (A') (A")
                 (A") (A") (A") (A") (A') (A') (A') (A') (A') (A')
                 (A') (A') (A') (A') (A') (A') (A') (A') (A')
 Requested convergence on RMS density matrix=1.00D-08 within 128 cycles.
 Requested convergence on MAX density matrix=1.00D-06.
 Requested convergence on             energy=1.00D-06.
 No special actions if energy rises.
 SCF Done:  E(RM062X) =  -2529.60264900     A.U. after   13 cycles
            NFock= 13  Conv=0.66D-08     -V/T= 2.0023
 Calling FoFJK, ICntrl=      2127 FMM=F ISym2X=1 I1Cent= 0 IOpClX= 0 NMat=1 NMatS=1 NMatT=0.
 ***** Axes restored to original set *****
 -------------------------------------------------------------------
 Center     Atomic                   Forces (Hartrees/Bohr)
 Number     Number              X              Y              Z
 -------------------------------------------------------------------
      1        6          -0.001656931   -0.000626763   -0.000000000
      2        6          -0.000685367   -0.000516119   -0.000000000
      3        6           0.001314529    0.000943224    0.000000000
      4        6          -0.001547105   -0.000166462   -0.000000000
      5        6           0.000287134   -0.000895717   -0.000000000
      6        6           0.000410310    0.003970097    0.000000000
      7       17           0.000128917   -0.003913290   -0.000000000
      8       17          -0.000044902    0.000165330    0.000000000
      9       17           0.000120914    0.000912054    0.000000000
     10       17           0.000651154    0.001072223    0.000000000
     11       17           0.001021347   -0.000944577   -0.000000000
 -------------------------------------------------------------------
 Cartesian Forces:  Max     0.003970097 RMS     0.001173487

 GradGradGradGradGradGradGradGradGradGradGradGradGradGradGradGradGradGrad
 Berny optimization.
 Using GEDIIS/GDIIS optimizer.
 FormGI is forming the generalized inverse of G from B-inverse, IUseBI=4.
 Internal  Forces:  Max     0.003914292 RMS     0.000816966
 Search for a local minimum.
 Step number  17 out of a maximum of   57
 All quantities printed in internal units (Hartrees-Bohrs-Radians)
 Mixed Optimization -- En-DIIS/RFO-DIIS
 Update second derivatives using D2CorX and points    6    7    8    9   10
                                                     11   12   13   14   15
                                                     16   17
 DE= -7.56D-05 DEPred=-5.49D-05 R= 1.38D+00
 TightC=F SS=  1.41D+00  RLast= 2.09D-02 DXNew= 2.4000D+00 6.2686D-02
 Trust test= 1.38D+00 RLast= 2.09D-02 DXMaxT set to 1.43D+00
 ITU=  1  1  1  1  1  1  1  1  1  1  1  1  1  0  0  1  0
 Use linear search instead of GDIIS.
     Eigenvalues ---    0.02237   0.02241   0.02246   0.02249   0.02252
     Eigenvalues ---    0.02262   0.02262   0.02262   0.12894   0.18293
     Eigenvalues ---    0.20407   0.24982   0.25048   0.25989   0.26342
     Eigenvalues ---    0.26920   0.27769   0.33209   0.34997   0.39218
     Eigenvalues ---    0.43472   0.46199   0.47641   0.49232   0.54387
     Eigenvalues ---    0.90787  12.01031
 RFO step:  Lambda=-4.22385839D-05 EMin= 2.23720708D-02
 Quartic linear search produced a step of  0.51593.
 Iteration  1 RMS(Cart)=  0.00159869 RMS(Int)=  0.00000140
 Iteration  2 RMS(Cart)=  0.00000192 RMS(Int)=  0.00000084
 Iteration  3 RMS(Cart)=  0.00000000 RMS(Int)=  0.00000084
 ClnCor:  largest displacement from symmetrization is 2.69D-13 for atom    10.
 Variable       Old X    -DE/DX   Delta X   Delta X   Delta X     New X
                                 (Linear)    (Quad)   (Total)
    R1        2.59503  -0.00055  -0.00108   0.00006  -0.00102   2.59401
    R2        2.63926  -0.00121   0.00149  -0.00067   0.00082   2.64008
    R3        3.39066   0.00005   0.00736  -0.00256   0.00480   3.39545
    R4        2.59706  -0.00141   0.00010  -0.00125  -0.00115   2.59591
    R5        2.63661  -0.00000   0.00078   0.00006   0.00084   2.63744
    R6        3.39714  -0.00091   0.00073  -0.00090  -0.00018   3.39696
    R7        2.64529  -0.00168  -0.00022  -0.00150  -0.00172   2.64357
    R8        3.31144  -0.00110  -0.00220  -0.00068  -0.00288   3.30855
    R9        2.64170  -0.00064   0.00205  -0.00016   0.00189   2.64359
   R10        3.29234  -0.00136  -0.00450  -0.00021  -0.00470   3.28763
   R11        3.32579  -0.00391  -0.00297  -0.00695  -0.00992   3.31587
    A1        2.17456   0.00050   0.00217   0.00106   0.00323   2.17779
    A2        2.06906   0.00003  -0.00020  -0.00015  -0.00035   2.06871
    A3        2.03957  -0.00053  -0.00196  -0.00091  -0.00288   2.03669
    A4        2.00214  -0.00047  -0.00063  -0.00090  -0.00153   2.00061
    A5        2.17728   0.00042  -0.00015   0.00096   0.00081   2.17809
    A6        2.06821  -0.00038  -0.00017  -0.00028  -0.00045   2.06776
    A7        2.03770  -0.00004   0.00032  -0.00068  -0.00036   2.03734
    A8        2.06513  -0.00055   0.00053  -0.00115  -0.00063   2.06451
    A9        2.13640   0.00129  -0.00072   0.00159   0.00087   2.13728
   A10        2.08165  -0.00074   0.00019  -0.00044  -0.00025   2.08140
   A11        2.07940   0.00064   0.00033   0.00157   0.00190   2.08129
   A12        2.10233  -0.00082   0.00074  -0.00107  -0.00032   2.10200
   A13        2.10146   0.00018  -0.00107  -0.00050  -0.00157   2.09989
   A14        2.06786  -0.00054  -0.00224  -0.00154  -0.00377   2.06409
   A15        2.13801   0.00011   0.00128   0.00044   0.00172   2.13973
   A16        2.07732   0.00043   0.00096   0.00110   0.00205   2.07937
    D1       -0.00000  -0.00000   0.00000   0.00000   0.00000   0.00000
    D2        3.14159  -0.00000   0.00000   0.00000   0.00000   3.14159
    D3        0.00000   0.00000   0.00000  -0.00000   0.00000   0.00000
    D4        3.14159  -0.00000   0.00000  -0.00000   0.00000   3.14159
    D5        3.14159   0.00000   0.00000  -0.00000   0.00000   3.14159
    D6       -0.00000   0.00000   0.00000  -0.00000   0.00000   0.00000
    D7        0.00000   0.00000   0.00000   0.00000  -0.00000   0.00000
    D8        3.14159   0.00000   0.00000   0.00000   0.00000   3.14159
    D9       -0.00000  -0.00000   0.00000  -0.00000   0.00000   0.00000
   D10        3.14159   0.00000   0.00000   0.00000   0.00000   3.14159
   D11        3.14159  -0.00000   0.00000  -0.00000   0.00000   3.14159
   D12        0.00000  -0.00000   0.00000  -0.00000  -0.00000   0.00000
   D13        0.00000  -0.00000   0.00000   0.00000  -0.00000   0.00000
   D14        3.14159   0.00000   0.00000   0.00000   0.00000   3.14159
   D15        3.14159  -0.00000   0.00000  -0.00000   0.00000   3.14159
   D16       -0.00000  -0.00000   0.00000  -0.00000   0.00000   0.00000
   D17       -0.00000   0.00000   0.00000   0.00000   0.00000   0.00000
   D18        3.14159   0.00000   0.00000   0.00000   0.00000   3.14159
   D19        3.14159   0.00000   0.00000   0.00000   0.00000   3.14159
   D20        0.00000  -0.00000   0.00000   0.00000   0.00000   0.00000
         Item               Value     Threshold  Converged?
 Maximum Force            0.003914     0.000450     NO 
 RMS     Force            0.000817     0.000300     NO 
 Maximum Displacement     0.006324     0.001800     NO 
 RMS     Displacement     0.001599     0.001200     NO 
 Predicted change in Energy=-3.092886D-05
 GradGradGradGradGradGradGradGradGradGradGradGradGradGradGradGradGradGrad

                          Input orientation:                          
 ---------------------------------------------------------------------
 Center     Atomic      Atomic             Coordinates (Angstroms)
 Number     Number       Type             X           Y           Z
 ---------------------------------------------------------------------
      1          6           0        1.236217    0.619475    0.000000
      2          6           0        1.298770   -0.751791   -0.000000
      3          6           0        0.077403   -1.380523   -0.000000
      4          6           0       -1.155288   -0.726017   -0.000000
      5          6           0       -1.163129    0.672878    0.000000
      6          6           0        0.053586    1.363240    0.000000
      7         17           0        0.040377    3.117875    0.000000
      8         17           0        2.774106    1.548657    0.000000
      9         17           0        0.038646   -3.177701   -0.000000
     10         17           0       -2.677962   -1.590197   -0.000000
     11         17           0       -2.668044    1.545763    0.000000
 ---------------------------------------------------------------------
                    Distance matrix (angstroms):
                    1          2          3          4          5
     1  C    0.000000
     2  C    1.372693   0.000000
     3  C    2.311459   1.373696   0.000000
     4  C    2.744020   2.454194   1.395674   0.000000
     5  C    2.399940   2.844404   2.399036   1.398917   0.000000
     6  C    1.397069   2.454352   2.743866   2.413788   1.398927
     7  Cl   2.769843   4.069136   4.498550   4.025558   2.725149
     8  Cl   1.796797   2.732888   3.981495   4.540295   4.033461
     9  Cl   3.981548   2.733670   1.797596   2.726946   4.033760
    10  Cl   4.494824   4.064151   2.763331   1.750811   2.723274
    11  Cl   4.012637   4.584143   4.012558   2.729361   1.739740
                    6          7          8          9         10
     6  C    0.000000
     7  Cl   1.754684   0.000000
     8  Cl   2.726831   3.152098   0.000000
     9  Cl   4.540966   6.295576   5.460879   0.000000
    10  Cl   4.022952   5.436479   6.291060   3.146447   0.000000
    11  Cl   2.727743   3.131625   5.442150   5.444013   3.135975
                   11
    11  Cl   0.000000
 Stoichiometry    C6Cl5(1-)
 Framework group  CS[SG(C6Cl5)]
 Deg. of freedom    19
 Full point group                 CS      NOp   2
 Largest Abelian subgroup         CS      NOp   2
 Largest concise Abelian subgroup C1      NOp   1
                         Standard orientation:                         
 ---------------------------------------------------------------------
 Center     Atomic      Atomic             Coordinates (Angstroms)
 Number     Number       Type             X           Y           Z
 ---------------------------------------------------------------------
      1          6           0       -1.154806    1.144930    0.000000
      2          6           0        0.000984    1.885495    0.000000
      3          6           0        1.156652    1.142883   -0.000000
      4          6           0        1.207094   -0.251879   -0.000000
      5          6           0       -0.000000   -0.958909   -0.000000
      6          6           0       -1.206694   -0.251175    0.000000
      7         17           0       -2.719064   -1.140925    0.000000
      8         17           0       -2.729014    2.011158    0.000000
      9         17           0        2.731865    2.008941   -0.000000
     10         17           0        2.717414   -1.137472   -0.000000
     11         17           0       -0.002342   -2.698647   -0.000000
 ---------------------------------------------------------------------
 Rotational constants (GHZ):           0.7072055           0.4572819           0.2777121
 Standard basis: 6-311++G(d,p) (5D, 7F)
 There are   217 symmetry adapted cartesian basis functions of A'  symmetry.
 There are    76 symmetry adapted cartesian basis functions of A"  symmetry.
 There are   206 symmetry adapted basis functions of A'  symmetry.
 There are    76 symmetry adapted basis functions of A"  symmetry.
   282 basis functions,   481 primitive gaussians,   293 cartesian basis functions
    61 alpha electrons       61 beta electrons
       nuclear repulsion energy      1049.7261667065 Hartrees.
 NAtoms=   11 NActive=   11 NUniq=   11 SFac= 1.00D+00 NAtFMM=   60 NAOKFM=F Big=F
 Integral buffers will be    131072 words long.
 Raffenetti 2 integral format.
 Two-electron integral symmetry is turned on.
 One-electron integrals computed using PRISM.
 NBasis=   282 RedAO= T EigKep=  1.91D-06  NBF=   206    76
 NBsUse=   280 1.00D-06 EigRej=  6.72D-07 NBFU=   204    76
 Initial guess from the checkpoint file:  "frequency_chks/Hexachlorobenzene_anion_product_Freq.chk"
 B after Tr=     0.000000    0.000000    0.000000
         Rot=    1.000000   -0.000000   -0.000000    0.000298 Ang=   0.03 deg.
 Initial guess orbital symmetries:
       Occupied  (A') (A') (A') (A') (A') (A') (A') (A') (A') (A')
                 (A') (A') (A') (A') (A') (A') (A') (A") (A') (A')
                 (A') (A") (A') (A") (A') (A') (A') (A") (A") (A')
                 (A') (A') (A') (A') (A') (A') (A') (A') (A') (A')
                 (A') (A') (A') (A') (A") (A') (A') (A") (A') (A")
                 (A') (A') (A") (A") (A') (A') (A") (A') (A") (A")
                 (A')
       Virtual   (A') (A') (A') (A") (A') (A") (A') (A') (A") (A')
                 (A") (A') (A") (A') (A') (A') (A") (A") (A') (A')
                 (A') (A") (A') (A') (A') (A') (A") (A') (A") (A')
                 (A') (A") (A') (A') (A') (A") (A") (A') (A') (A")
                 (A') (A') (A') (A') (A') (A') (A') (A') (A') (A')
                 (A') (A') (A') (A') (A') (A") (A') (A') (A") (A')
                 (A') (A") (A') (A') (A') (A') (A") (A") (A') (A')
                 (A") (A') (A") (A") (A') (A") (A") (A') (A') (A')
                 (A") (A') (A') (A') (A") (A') (A') (A") (A') (A')
                 (A") (A') (A") (A') (A") (A') (A') (A") (A") (A")
                 (A') (A') (A') (A") (A') (A') (A') (A') (A') (A')
                 (A') (A") (A') (A') (A") (A') (A') (A') (A') (A')
                 (A") (A') (A') (A") (A') (A') (A") (A') (A") (A")
                 (A') (A') (A') (A') (A') (A') (A") (A") (A') (A')
                 (A') (A') (A") (A") (A") (A') (A') (A') (A') (A")
                 (A') (A") (A") (A") (A') (A") (A") (A') (A') (A')
                 (A') (A') (A') (A') (A') (A') (A') (A') (A") (A')
                 (A") (A") (A") (A") (A') (A") (A') (A') (A') (A')
                 (A') (A') (A') (A') (A') (A') (A') (A') (A') (A')
                 (A') (A') (A') (A') (A') (A') (A') (A') (A') (A")
                 (A") (A") (A") (A") (A') (A') (A') (A') (A') (A')
                 (A') (A') (A') (A') (A') (A') (A') (A') (A')
 Requested convergence on RMS density matrix=1.00D-08 within 128 cycles.
 Requested convergence on MAX density matrix=1.00D-06.
 Requested convergence on             energy=1.00D-06.
 No special actions if energy rises.
 SCF Done:  E(RM062X) =  -2529.60269275     A.U. after   13 cycles
            NFock= 13  Conv=0.32D-08     -V/T= 2.0023
 Calling FoFJK, ICntrl=      2127 FMM=F ISym2X=1 I1Cent= 0 IOpClX= 0 NMat=1 NMatS=1 NMatT=0.
 ***** Axes restored to original set *****
 -------------------------------------------------------------------
 Center     Atomic                   Forces (Hartrees/Bohr)
 Number     Number              X              Y              Z
 -------------------------------------------------------------------
      1        6          -0.001066407    0.000411252   -0.000000000
      2        6          -0.000515104   -0.000339983   -0.000000000
      3        6           0.000844073    0.000603611    0.000000000
      4        6          -0.000723346   -0.000449206   -0.000000000
      5        6           0.001357586   -0.000235183    0.000000000
      6        6           0.000297635    0.001239048    0.000000000
      7       17           0.000060435   -0.002160830   -0.000000000
      8       17          -0.000402123   -0.000211990   -0.000000000
      9       17           0.000046273    0.000754527    0.000000000
     10       17           0.000224584    0.000635370    0.000000000
     11       17          -0.000123608   -0.000246617   -0.000000000
 -------------------------------------------------------------------
 Cartesian Forces:  Max     0.002160830 RMS     0.000627463

 GradGradGradGradGradGradGradGradGradGradGradGradGradGradGradGradGradGrad
 Berny optimization.
 Using GEDIIS/GDIIS optimizer.
 FormGI is forming the generalized inverse of G from B-inverse, IUseBI=4.
 Internal  Forces:  Max     0.002161252 RMS     0.000516260
 Search for a local minimum.
 Step number  18 out of a maximum of   57
 All quantities printed in internal units (Hartrees-Bohrs-Radians)
 Mixed Optimization -- En-DIIS/RFO-DIIS
 Swapping is turned off.
 Update second derivatives using D2CorX and points    6    7    8    9   10
                                                     11   12   13   14   15
                                                     16   17   18
 DE= -4.38D-05 DEPred=-3.09D-05 R= 1.41D+00
 TightC=F SS=  1.41D+00  RLast= 1.46D-02 DXNew= 2.4000D+00 4.3797D-02
 Trust test= 1.41D+00 RLast= 1.46D-02 DXMaxT set to 1.43D+00
 ITU=  1  1  1  1  1  1  1  1  1  1  1  1  1  1  0  0  1  0
     Eigenvalues ---    0.02237   0.02241   0.02246   0.02249   0.02252
     Eigenvalues ---    0.02262   0.02262   0.02262   0.12762   0.17591
     Eigenvalues ---    0.19135   0.24728   0.25033   0.25936   0.26226
     Eigenvalues ---    0.27078   0.27962   0.30394   0.35141   0.39014
     Eigenvalues ---    0.43484   0.46244   0.47643   0.49840   0.54570
     Eigenvalues ---    0.66422  12.01454
 En-DIIS/RFO-DIIS/Sim-DIIS IScMMF=       -3 using points:    18   17
 RFO step:  Lambda=-3.27579276D-05.
 DidBck=F Rises=F RFO-DIIS coefs:    1.64623   -0.64623
 Iteration  1 RMS(Cart)=  0.00173601 RMS(Int)=  0.00000081
 Iteration  2 RMS(Cart)=  0.00000093 RMS(Int)=  0.00000038
 ClnCor:  largest displacement from symmetrization is 5.92D-11 for atom    11.
 Variable       Old X    -DE/DX   Delta X   Delta X   Delta X     New X
                                 (Linear)    (Quad)   (Total)
    R1        2.59401  -0.00034  -0.00066   0.00037  -0.00029   2.59372
    R2        2.64008  -0.00134   0.00053  -0.00155  -0.00102   2.63906
    R3        3.39545  -0.00045   0.00310  -0.00332  -0.00022   3.39523
    R4        2.59591  -0.00098  -0.00075  -0.00088  -0.00163   2.59428
    R5        2.63744  -0.00019   0.00054  -0.00023   0.00031   2.63775
    R6        3.39696  -0.00076  -0.00011  -0.00152  -0.00163   3.39533
    R7        2.64357  -0.00085  -0.00111  -0.00039  -0.00150   2.64206
    R8        3.30855  -0.00051  -0.00186   0.00076  -0.00110   3.30745
    R9        2.64359  -0.00094   0.00122  -0.00143  -0.00021   2.64338
   R10        3.28763  -0.00002  -0.00304   0.00180  -0.00124   3.28640
   R11        3.31587  -0.00216  -0.00641  -0.00282  -0.00923   3.30664
    A1        2.17779   0.00026   0.00209  -0.00019   0.00189   2.17968
    A2        2.06871  -0.00008  -0.00023  -0.00047  -0.00070   2.06801
    A3        2.03669  -0.00017  -0.00186   0.00066  -0.00120   2.03549
    A4        2.00061  -0.00030  -0.00099  -0.00023  -0.00122   1.99939
    A5        2.17809   0.00024   0.00052   0.00054   0.00106   2.17915
    A6        2.06776  -0.00017  -0.00029  -0.00003  -0.00032   2.06744
    A7        2.03734  -0.00007  -0.00023  -0.00051  -0.00074   2.03660
    A8        2.06451  -0.00045  -0.00040  -0.00106  -0.00146   2.06305
    A9        2.13728   0.00096   0.00056   0.00164   0.00221   2.13948
   A10        2.08140  -0.00050  -0.00016  -0.00059  -0.00074   2.08066
   A11        2.08129   0.00035   0.00123   0.00079   0.00202   2.08331
   A12        2.10200  -0.00063  -0.00021  -0.00120  -0.00141   2.10059
   A13        2.09989   0.00028  -0.00102   0.00041  -0.00060   2.09929
   A14        2.06409  -0.00010  -0.00244   0.00015  -0.00229   2.06180
   A15        2.13973  -0.00003   0.00111  -0.00008   0.00103   2.14076
   A16        2.07937   0.00012   0.00132  -0.00007   0.00126   2.08063
    D1       -0.00000  -0.00000   0.00000   0.00000   0.00000   0.00000
    D2        3.14159   0.00000   0.00000   0.00000   0.00000   3.14159
    D3        0.00000  -0.00000   0.00000  -0.00000   0.00000   0.00000
    D4        3.14159  -0.00000   0.00000  -0.00000   0.00000   3.14159
    D5        3.14159   0.00000   0.00000  -0.00000   0.00000   3.14159
    D6        0.00000  -0.00000   0.00000  -0.00000   0.00000   0.00000
    D7       -0.00000  -0.00000   0.00000   0.00000   0.00000   0.00000
    D8        3.14159  -0.00000   0.00000  -0.00000   0.00000   3.14159
    D9        0.00000  -0.00000   0.00000  -0.00000  -0.00000   0.00000
   D10        3.14159   0.00000   0.00000  -0.00000   0.00000   3.14159
   D11        3.14159  -0.00000   0.00000  -0.00000   0.00000   3.14159
   D12       -0.00000   0.00000   0.00000  -0.00000   0.00000   0.00000
   D13        0.00000  -0.00000   0.00000   0.00000   0.00000   0.00000
   D14        3.14159   0.00000   0.00000   0.00000   0.00000   3.14159
   D15        3.14159   0.00000   0.00000   0.00000   0.00000   3.14159
   D16        0.00000   0.00000   0.00000   0.00000   0.00000   0.00000
   D17       -0.00000   0.00000   0.00000   0.00000   0.00000   0.00000
   D18        3.14159   0.00000   0.00000   0.00000   0.00000   3.14159
   D19        3.14159   0.00000   0.00000   0.00000   0.00000   3.14159
   D20        0.00000   0.00000   0.00000   0.00000  -0.00000   0.00000
         Item               Value     Threshold  Converged?
 Maximum Force            0.002161     0.000450     NO 
 RMS     Force            0.000516     0.000300     NO 
 Maximum Displacement     0.007642     0.001800     NO 
 RMS     Displacement     0.001736     0.001200     NO 
 Predicted change in Energy=-1.638086D-05
 GradGradGradGradGradGradGradGradGradGradGradGradGradGradGradGradGradGrad

                          Input orientation:                          
 ---------------------------------------------------------------------
 Center     Atomic      Atomic             Coordinates (Angstroms)
 Number     Number       Type             X           Y           Z
 ---------------------------------------------------------------------
      1          6           0        1.235071    0.619383    0.000000
      2          6           0        1.298802   -0.751675   -0.000000
      3          6           0        0.077977   -1.379576   -0.000000
      4          6           0       -1.155317   -0.725858   -0.000000
      5          6           0       -1.162090    0.672245    0.000000
      6          6           0        0.053663    1.364080    0.000000
      7         17           0        0.040495    3.113831    0.000000
      8         17           0        2.772705    1.548760    0.000000
      9         17           0        0.039165   -3.175890   -0.000000
     10         17           0       -2.678782   -1.587460   -0.000000
     11         17           0       -2.667008    1.543820    0.000000
 ---------------------------------------------------------------------
                    Distance matrix (angstroms):
                    1          2          3          4          5
     1  C    0.000000
     2  C    1.372539   0.000000
     3  C    2.309699   1.372835   0.000000
     4  C    2.742924   2.454255   1.395837   0.000000
     5  C    2.397744   2.843157   2.397444   1.398120   0.000000
     6  C    1.396531   2.454953   2.743764   2.414431   1.398818
     7  Cl   2.765734   4.065154   4.493564   4.021589   2.721681
     8  Cl   1.796679   2.732104   3.979537   4.539079   4.031239
     9  Cl   3.979233   2.731941   1.796733   2.725700   4.031273
    10  Cl   4.493150   4.064444   2.764585   1.750229   2.721511
    11  Cl   4.010088   4.582243   4.010135   2.727022   1.739086
                    6          7          8          9         10
     6  C    0.000000
     7  Cl   1.749800   0.000000
     8  Cl   2.725306   3.148717   0.000000
     9  Cl   4.539993   6.289721   5.458439   0.000000
    10  Cl   4.022169   5.431077   6.289243   3.148070   0.000000
    11  Cl   2.726602   3.129777   5.439715   5.440499   3.131301
                   11
    11  Cl   0.000000
 Stoichiometry    C6Cl5(1-)
 Framework group  CS[SG(C6Cl5)]
 Deg. of freedom    19
 Full point group                 CS      NOp   2
 Largest Abelian subgroup         CS      NOp   2
 Largest concise Abelian subgroup C1      NOp   1
                         Standard orientation:                         
 ---------------------------------------------------------------------
 Center     Atomic      Atomic             Coordinates (Angstroms)
 Number     Number       Type             X           Y           Z
 ---------------------------------------------------------------------
      1          6           0       -1.154406    1.143843    0.000000
      2          6           0        0.000535    1.885447   -0.000000
      3          6           0        1.155293    1.143013   -0.000000
      4          6           0        1.206868   -0.251871   -0.000000
      5          6           0       -0.000000   -0.957710    0.000000
      6          6           0       -1.207562   -0.251676    0.000000
      7         17           0       -2.715630   -1.139108    0.000000
      8         17           0       -2.728747    2.009582    0.000000
      9         17           0        2.729692    2.008760   -0.000000
     10         17           0        2.715447   -1.139278   -0.000000
     11         17           0       -0.001019   -2.696796    0.000000
 ---------------------------------------------------------------------
 Rotational constants (GHZ):           0.7078490           0.4579131           0.2780442
 Standard basis: 6-311++G(d,p) (5D, 7F)
 There are   217 symmetry adapted cartesian basis functions of A'  symmetry.
 There are    76 symmetry adapted cartesian basis functions of A"  symmetry.
 There are   206 symmetry adapted basis functions of A'  symmetry.
 There are    76 symmetry adapted basis functions of A"  symmetry.
   282 basis functions,   481 primitive gaussians,   293 cartesian basis functions
    61 alpha electrons       61 beta electrons
       nuclear repulsion energy      1050.3480763401 Hartrees.
 NAtoms=   11 NActive=   11 NUniq=   11 SFac= 1.00D+00 NAtFMM=   60 NAOKFM=F Big=F
 Integral buffers will be    131072 words long.
 Raffenetti 2 integral format.
 Two-electron integral symmetry is turned on.
 One-electron integrals computed using PRISM.
 NBasis=   282 RedAO= T EigKep=  1.90D-06  NBF=   206    76
 NBsUse=   280 1.00D-06 EigRej=  6.75D-07 NBFU=   204    76
 Initial guess from the checkpoint file:  "frequency_chks/Hexachlorobenzene_anion_product_Freq.chk"
 B after Tr=    -0.000000   -0.000000   -0.000000
         Rot=    1.000000    0.000000   -0.000000   -0.000042 Ang=  -0.00 deg.
 Initial guess orbital symmetries:
       Occupied  (A') (A') (A') (A') (A') (A') (A') (A') (A') (A')
                 (A') (A') (A') (A') (A') (A') (A') (A") (A') (A')
                 (A') (A") (A") (A') (A') (A') (A') (A") (A") (A')
                 (A') (A') (A') (A') (A') (A') (A') (A') (A') (A')
                 (A') (A') (A') (A') (A") (A') (A') (A") (A') (A")
                 (A') (A') (A") (A") (A') (A') (A") (A') (A") (A")
                 (A')
       Virtual   (A') (A') (A') (A") (A') (A") (A') (A') (A") (A')
                 (A") (A') (A") (A') (A') (A') (A") (A") (A') (A')
                 (A') (A") (A') (A') (A') (A') (A") (A') (A") (A')
                 (A') (A") (A') (A') (A') (A") (A") (A') (A') (A")
                 (A') (A') (A') (A') (A') (A') (A') (A') (A') (A')
                 (A') (A') (A') (A') (A') (A") (A') (A') (A") (A')
                 (A') (A") (A') (A') (A') (A') (A") (A") (A') (A')
                 (A") (A') (A") (A") (A') (A") (A") (A') (A') (A')
                 (A") (A') (A') (A') (A") (A') (A') (A") (A') (A')
                 (A") (A') (A") (A') (A") (A') (A') (A") (A") (A")
                 (A') (A') (A') (A") (A') (A') (A') (A') (A') (A')
                 (A') (A") (A') (A') (A") (A') (A') (A') (A') (A')
                 (A") (A') (A') (A") (A') (A') (A") (A') (A") (A")
                 (A') (A') (A') (A') (A') (A') (A") (A") (A') (A')
                 (A') (A') (A") (A") (A") (A') (A') (A') (A') (A")
                 (A') (A") (A") (A") (A') (A") (A") (A') (A') (A')
                 (A') (A') (A') (A') (A') (A') (A') (A') (A") (A')
                 (A") (A") (A") (A") (A') (A") (A') (A') (A') (A')
                 (A') (A') (A') (A') (A') (A') (A') (A') (A') (A')
                 (A') (A') (A') (A') (A') (A') (A') (A') (A') (A")
                 (A") (A") (A") (A") (A') (A') (A') (A') (A') (A')
                 (A') (A') (A') (A') (A') (A') (A') (A') (A')
 Requested convergence on RMS density matrix=1.00D-08 within 128 cycles.
 Requested convergence on MAX density matrix=1.00D-06.
 Requested convergence on             energy=1.00D-06.
 No special actions if energy rises.
 SCF Done:  E(RM062X) =  -2529.60271187     A.U. after   13 cycles
            NFock= 13  Conv=0.37D-08     -V/T= 2.0022
 Calling FoFJK, ICntrl=      2127 FMM=F ISym2X=1 I1Cent= 0 IOpClX= 0 NMat=1 NMatS=1 NMatT=0.
 ***** Axes restored to original set *****
 -------------------------------------------------------------------
 Center     Atomic                   Forces (Hartrees/Bohr)
 Number     Number              X              Y              Z
 -------------------------------------------------------------------
      1        6          -0.000420218    0.000460523    0.000000000
      2        6          -0.000107893   -0.000084039   -0.000000000
      3        6           0.000174652    0.000092047    0.000000000
      4        6          -0.000331086   -0.000460694   -0.000000000
      5        6           0.001004401    0.000077307    0.000000000
      6        6           0.000098982   -0.000368269   -0.000000000
      7       17           0.000019554   -0.000296140   -0.000000000
      8       17          -0.000150718   -0.000132782   -0.000000000
      9       17          -0.000020573    0.000277689    0.000000000
     10       17           0.000239866    0.000259708    0.000000000
     11       17          -0.000506967    0.000174650   -0.000000000
 -------------------------------------------------------------------
 Cartesian Forces:  Max     0.001004401 RMS     0.000277810

 GradGradGradGradGradGradGradGradGradGradGradGradGradGradGradGradGradGrad
 Berny optimization.
 Using GEDIIS/GDIIS optimizer.
 FormGI is forming the generalized inverse of G from B-inverse, IUseBI=4.
 Internal  Forces:  Max     0.000616636 RMS     0.000176725
 Search for a local minimum.
 Step number  19 out of a maximum of   57
 All quantities printed in internal units (Hartrees-Bohrs-Radians)
 Mixed Optimization -- En-DIIS/RFO-DIIS
 Swapping is turned off.
 Update second derivatives using D2CorX and points    6    7    8    9   10
                                                     11   12   13   14   15
                                                     16   17   18   19
 DE= -1.91D-05 DEPred=-1.64D-05 R= 1.17D+00
 TightC=F SS=  1.41D+00  RLast= 1.13D-02 DXNew= 2.4000D+00 3.3862D-02
 Trust test= 1.17D+00 RLast= 1.13D-02 DXMaxT set to 1.43D+00
 ITU=  1  1  1  1  1  1  1  1  1  1  1  1  1  1  1  0  0  1  0
     Eigenvalues ---    0.02237   0.02241   0.02246   0.02249   0.02252
     Eigenvalues ---    0.02262   0.02262   0.02262   0.13042   0.17093
     Eigenvalues ---    0.19220   0.24578   0.25033   0.25641   0.26662
     Eigenvalues ---    0.26821   0.27920   0.29372   0.34938   0.38674
     Eigenvalues ---    0.43710   0.46475   0.47738   0.50052   0.54477
     Eigenvalues ---    0.55328  12.02026
 En-DIIS/RFO-DIIS/Sim-DIIS IScMMF=       -3 using points:    19   18   17
 RFO step:  Lambda=-3.09202242D-06.
 DidBck=F Rises=F RFO-DIIS coefs:    1.51667   -0.88044    0.36377
 Iteration  1 RMS(Cart)=  0.00055829 RMS(Int)=  0.00000030
 Iteration  2 RMS(Cart)=  0.00000017 RMS(Int)=  0.00000028
 ClnCor:  largest displacement from symmetrization is 3.04D-13 for atom    10.
 Variable       Old X    -DE/DX   Delta X   Delta X   Delta X     New X
                                 (Linear)    (Quad)   (Total)
    R1        2.59372  -0.00004   0.00022   0.00004   0.00026   2.59399
    R2        2.63906  -0.00062  -0.00082  -0.00040  -0.00123   2.63784
    R3        3.39523  -0.00020  -0.00186   0.00024  -0.00162   3.39361
    R4        2.59428  -0.00023  -0.00042   0.00003  -0.00039   2.59389
    R5        2.63775  -0.00014  -0.00015  -0.00007  -0.00021   2.63754
    R6        3.39533  -0.00028  -0.00078  -0.00027  -0.00105   3.39428
    R7        2.64206  -0.00004  -0.00015   0.00020   0.00005   2.64212
    R8        3.30745  -0.00034   0.00048  -0.00014   0.00034   3.30779
    R9        2.64338  -0.00047  -0.00079  -0.00022  -0.00101   2.64237
   R10        3.28640   0.00053   0.00107  -0.00015   0.00092   3.28731
   R11        3.30664  -0.00030  -0.00116   0.00014  -0.00102   3.30563
    A1        2.17968   0.00005  -0.00020   0.00005  -0.00014   2.17954
    A2        2.06801  -0.00008  -0.00023  -0.00015  -0.00038   2.06763
    A3        2.03549   0.00004   0.00043   0.00010   0.00052   2.03602
    A4        1.99939  -0.00008  -0.00007  -0.00007  -0.00014   1.99925
    A5        2.17915   0.00003   0.00025   0.00004   0.00029   2.17944
    A6        2.06744   0.00003  -0.00000   0.00015   0.00015   2.06759
    A7        2.03660  -0.00006  -0.00025  -0.00019  -0.00044   2.03616
    A8        2.06305  -0.00016  -0.00053  -0.00014  -0.00066   2.06238
    A9        2.13948   0.00026   0.00082   0.00006   0.00088   2.14036
   A10        2.08066  -0.00010  -0.00030   0.00008  -0.00022   2.08044
   A11        2.08331   0.00007   0.00035   0.00003   0.00038   2.08369
   A12        2.10059  -0.00020  -0.00061  -0.00017  -0.00078   2.09981
   A13        2.09929   0.00014   0.00026   0.00014   0.00040   2.09969
   A14        2.06180   0.00009   0.00019   0.00008   0.00027   2.06207
   A15        2.14076  -0.00007  -0.00010  -0.00017  -0.00026   2.14049
   A16        2.08063  -0.00002  -0.00010   0.00009  -0.00001   2.08062
    D1       -0.00000   0.00000   0.00000   0.00000   0.00000   0.00000
    D2        3.14159  -0.00000   0.00000  -0.00000   0.00000   3.14159
    D3        0.00000  -0.00000   0.00000  -0.00000  -0.00000   0.00000
    D4        3.14159  -0.00000   0.00000  -0.00000   0.00000   3.14159
    D5        3.14159  -0.00000   0.00000   0.00000   0.00000   3.14159
    D6       -0.00000  -0.00000   0.00000   0.00000   0.00000   0.00000
    D7       -0.00000   0.00000   0.00000   0.00000   0.00000   0.00000
    D8        3.14159   0.00000   0.00000   0.00000   0.00000   3.14159
    D9        0.00000   0.00000   0.00000  -0.00000   0.00000   0.00000
   D10        3.14159   0.00000   0.00000   0.00000   0.00000   3.14159
   D11        3.14159  -0.00000   0.00000  -0.00000   0.00000   3.14159
   D12       -0.00000  -0.00000   0.00000  -0.00000   0.00000   0.00000
   D13        0.00000  -0.00000   0.00000  -0.00000   0.00000   0.00000
   D14        3.14159  -0.00000   0.00000  -0.00000   0.00000   3.14159
   D15        3.14159  -0.00000   0.00000  -0.00000   0.00000   3.14159
   D16       -0.00000  -0.00000   0.00000  -0.00000   0.00000   0.00000
   D17       -0.00000   0.00000   0.00000   0.00000   0.00000   0.00000
   D18        3.14159   0.00000   0.00000   0.00000   0.00000   3.14159
   D19        3.14159   0.00000   0.00000   0.00000   0.00000   3.14159
   D20        0.00000   0.00000   0.00000   0.00000   0.00000   0.00000
         Item               Value     Threshold  Converged?
 Maximum Force            0.000617     0.000450     NO 
 RMS     Force            0.000177     0.000300     YES
 Maximum Displacement     0.001656     0.001800     YES
 RMS     Displacement     0.000558     0.001200     YES
 Predicted change in Energy=-1.517945D-06
 GradGradGradGradGradGradGradGradGradGradGradGradGradGradGradGradGradGrad

                          Input orientation:                          
 ---------------------------------------------------------------------
 Center     Atomic      Atomic             Coordinates (Angstroms)
 Number     Number       Type             X           Y           Z
 ---------------------------------------------------------------------
      1          6           0        1.234912    0.619750    0.000000
      2          6           0        1.298873   -0.751438   -0.000000
      3          6           0        0.078247   -1.379274   -0.000000
      4          6           0       -1.155154   -0.725999   -0.000000
      5          6           0       -1.161441    0.672135    0.000000
      6          6           0        0.053827    1.363742    0.000000
      7         17           0        0.040594    3.112955    0.000000
      8         17           0        2.772016    1.548342    0.000000
      9         17           0        0.039228   -3.175026   -0.000000
     10         17           0       -2.679263   -1.586828   -0.000000
     11         17           0       -2.667158    1.543301    0.000000
 ---------------------------------------------------------------------
                    Distance matrix (angstroms):
                    1          2          3          4          5
     1  C    0.000000
     2  C    1.372678   0.000000
     3  C    2.309539   1.372628   0.000000
     4  C    2.742892   2.454159   1.395725   0.000000
     5  C    2.396926   2.842483   2.396896   1.398149   0.000000
     6  C    1.395882   2.454409   2.743125   2.414260   1.398283
     7  Cl   2.764501   4.064086   4.492387   4.020868   2.720751
     8  Cl   1.795821   2.731142   3.978358   4.538204   4.029867
     9  Cl   3.978691   2.731389   1.796176   2.724754   4.030169
    10  Cl   4.493301   4.064904   2.765310   1.750409   2.721525
    11  Cl   4.009875   4.582055   4.009825   2.726880   1.739572
                    6          7          8          9         10
     6  C    0.000000
     7  Cl   1.749263   0.000000
     8  Cl   2.724451   3.147806   0.000000
     9  Cl   4.538791   6.287981   5.456954   0.000000
    10  Cl   4.021895   5.430063   6.288540   3.148422   0.000000
    11  Cl   2.726903   3.129813   5.439176   5.439406   3.130153
                   11
    11  Cl   0.000000
 Stoichiometry    C6Cl5(1-)
 Framework group  CS[SG(C6Cl5)]
 Deg. of freedom    19
 Full point group                 CS      NOp   2
 Largest Abelian subgroup         CS      NOp   2
 Largest concise Abelian subgroup C1      NOp   1
                         Standard orientation:                         
 ---------------------------------------------------------------------
 Center     Atomic      Atomic             Coordinates (Angstroms)
 Number     Number       Type             X           Y           Z
 ---------------------------------------------------------------------
      1          6           0       -1.155088    1.143228    0.000000
      2          6           0       -0.000389    1.885466    0.000000
      3          6           0        1.154451    1.143543    0.000000
      4          6           0        1.206912   -0.251196   -0.000000
      5          6           0       -0.000000   -0.957017   -0.000000
      6          6           0       -1.207348   -0.251676   -0.000000
      7         17           0       -2.714633   -1.139378   -0.000000
      8         17           0       -2.728764    2.008396    0.000000
      9         17           0        2.728190    2.009334    0.000000
     10         17           0        2.715430   -1.139062   -0.000000
     11         17           0        0.000293   -2.696589   -0.000000
 ---------------------------------------------------------------------
 Rotational constants (GHZ):           0.7079898           0.4581147           0.2781402
 Standard basis: 6-311++G(d,p) (5D, 7F)
 There are   217 symmetry adapted cartesian basis functions of A'  symmetry.
 There are    76 symmetry adapted cartesian basis functions of A"  symmetry.
 There are   206 symmetry adapted basis functions of A'  symmetry.
 There are    76 symmetry adapted basis functions of A"  symmetry.
   282 basis functions,   481 primitive gaussians,   293 cartesian basis functions
    61 alpha electrons       61 beta electrons
       nuclear repulsion energy      1050.5131116483 Hartrees.
 NAtoms=   11 NActive=   11 NUniq=   11 SFac= 1.00D+00 NAtFMM=   60 NAOKFM=F Big=F
 Integral buffers will be    131072 words long.
 Raffenetti 2 integral format.
 Two-electron integral symmetry is turned on.
 One-electron integrals computed using PRISM.
 NBasis=   282 RedAO= T EigKep=  1.89D-06  NBF=   206    76
 NBsUse=   280 1.00D-06 EigRej=  6.74D-07 NBFU=   204    76
 Initial guess from the checkpoint file:  "frequency_chks/Hexachlorobenzene_anion_product_Freq.chk"
 B after Tr=     0.000000    0.000000   -0.000000
         Rot=    1.000000    0.000000   -0.000000   -0.000152 Ang=  -0.02 deg.
 Initial guess orbital symmetries:
       Occupied  (A') (A') (A') (A') (A') (A') (A') (A') (A') (A')
                 (A') (A') (A') (A') (A') (A') (A') (A") (A') (A')
                 (A') (A") (A") (A') (A') (A') (A') (A") (A") (A')
                 (A') (A') (A') (A') (A') (A') (A') (A') (A') (A')
                 (A') (A') (A') (A') (A") (A') (A') (A") (A') (A")
                 (A') (A') (A") (A") (A') (A') (A") (A') (A") (A")
                 (A')
       Virtual   (A') (A') (A') (A") (A') (A") (A') (A') (A") (A')
                 (A") (A') (A") (A') (A') (A') (A") (A") (A') (A')
                 (A') (A") (A') (A') (A') (A') (A") (A') (A") (A')
                 (A') (A") (A') (A') (A') (A") (A") (A') (A') (A")
                 (A') (A') (A') (A') (A') (A') (A') (A') (A') (A')
                 (A') (A') (A') (A') (A') (A") (A') (A') (A") (A')
                 (A') (A") (A') (A') (A') (A') (A") (A") (A') (A')
                 (A") (A') (A") (A") (A') (A") (A") (A') (A') (A')
                 (A") (A') (A') (A') (A") (A') (A') (A") (A') (A')
                 (A") (A') (A") (A') (A") (A') (A') (A") (A") (A")
                 (A') (A') (A') (A") (A') (A') (A') (A') (A') (A')
                 (A') (A") (A') (A') (A") (A') (A') (A') (A') (A')
                 (A") (A') (A') (A") (A') (A') (A") (A') (A") (A")
                 (A') (A') (A') (A') (A') (A') (A") (A") (A') (A')
                 (A') (A') (A") (A") (A") (A') (A') (A') (A') (A")
                 (A') (A") (A") (A") (A') (A") (A") (A') (A') (A')
                 (A') (A') (A') (A') (A') (A') (A') (A') (A") (A')
                 (A") (A") (A") (A") (A') (A") (A') (A') (A') (A')
                 (A') (A') (A') (A') (A') (A') (A') (A') (A') (A')
                 (A') (A') (A') (A') (A') (A') (A') (A') (A') (A")
                 (A") (A") (A") (A") (A') (A') (A') (A') (A') (A')
                 (A') (A') (A') (A') (A') (A') (A') (A') (A')
 Requested convergence on RMS density matrix=1.00D-08 within 128 cycles.
 Requested convergence on MAX density matrix=1.00D-06.
 Requested convergence on             energy=1.00D-06.
 No special actions if energy rises.
 SCF Done:  E(RM062X) =  -2529.60271362     A.U. after   11 cycles
            NFock= 11  Conv=0.45D-08     -V/T= 2.0022
 Calling FoFJK, ICntrl=      2127 FMM=F ISym2X=1 I1Cent= 0 IOpClX= 0 NMat=1 NMatS=1 NMatT=0.
 ***** Axes restored to original set *****
 -------------------------------------------------------------------
 Center     Atomic                   Forces (Hartrees/Bohr)
 Number     Number              X              Y              Z
 -------------------------------------------------------------------
      1        6          -0.000116406   -0.000006227   -0.000000000
      2        6           0.000033894   -0.000005493    0.000000000
      3        6          -0.000002692   -0.000040905   -0.000000000
      4        6          -0.000402630   -0.000234705   -0.000000000
      5        6           0.000345238   -0.000143711    0.000000000
      6        6          -0.000005663   -0.000031577   -0.000000000
      7       17          -0.000005346   -0.000000182   -0.000000000
      8       17           0.000078255    0.000031530    0.000000000
      9       17           0.000001613    0.000031167    0.000000000
     10       17           0.000383464    0.000223753    0.000000000
     11       17          -0.000309728    0.000176349   -0.000000000
 -------------------------------------------------------------------
 Cartesian Forces:  Max     0.000402630 RMS     0.000146347

 GradGradGradGradGradGradGradGradGradGradGradGradGradGradGradGradGradGrad
 Berny optimization.
 Using GEDIIS/GDIIS optimizer.
 FormGI is forming the generalized inverse of G from B-inverse, IUseBI=4.
 Internal  Forces:  Max     0.000443921 RMS     0.000084615
 Search for a local minimum.
 Step number  20 out of a maximum of   57
 All quantities printed in internal units (Hartrees-Bohrs-Radians)
 Mixed Optimization -- En-DIIS/RFO-DIIS
 Swapping is turned off.
 Update second derivatives using D2CorX and points    6    7    8    9   10
                                                     11   12   13   14   15
                                                     16   17   18   19   20
 DE= -1.75D-06 DEPred=-1.52D-06 R= 1.15D+00
 TightC=F SS=  1.41D+00  RLast= 3.41D-03 DXNew= 2.4000D+00 1.0223D-02
 Trust test= 1.15D+00 RLast= 3.41D-03 DXMaxT set to 1.43D+00
 ITU=  1  1  1  1  1  1  1  1  1  1  1  1  1  1  1  1  0  0  1  0
     Eigenvalues ---    0.02237   0.02241   0.02246   0.02249   0.02252
     Eigenvalues ---    0.02262   0.02262   0.02262   0.13108   0.17689
     Eigenvalues ---    0.18863   0.24217   0.24963   0.25094   0.26257
     Eigenvalues ---    0.27027   0.27825   0.29051   0.35001   0.38562
     Eigenvalues ---    0.43382   0.46013   0.47681   0.48965   0.53649
     Eigenvalues ---    0.55053  11.92396
 En-DIIS/RFO-DIIS/Sim-DIIS IScMMF=       -3 using points:    20   19   18   17
 RFO step:  Lambda=-4.75307591D-08.
 Use linear search instead of GDIIS.
 RFO step:  Lambda=-3.98975018D-08 EMin= 2.23721766D-02
 Quartic linear search produced a step of  0.05680.
 Iteration  1 RMS(Cart)=  0.00005314 RMS(Int)=  0.00000000
 Iteration  2 RMS(Cart)=  0.00000000 RMS(Int)=  0.00000000
 ClnCor:  largest displacement from symmetrization is 1.68D-14 for atom    11.
 Variable       Old X    -DE/DX   Delta X   Delta X   Delta X     New X
                                 (Linear)    (Quad)   (Total)
    R1        2.59399   0.00001   0.00001   0.00002   0.00004   2.59402
    R2        2.63784  -0.00002  -0.00007  -0.00001  -0.00008   2.63776
    R3        3.39361   0.00008  -0.00009   0.00007  -0.00002   3.39359
    R4        2.59389   0.00002  -0.00002   0.00005   0.00003   2.59392
    R5        2.63754   0.00001  -0.00001   0.00005   0.00003   2.63757
    R6        3.39428  -0.00003  -0.00006  -0.00008  -0.00014   3.39414
    R7        2.64212   0.00001   0.00000   0.00003   0.00004   2.64215
    R8        3.30779  -0.00044   0.00002  -0.00005  -0.00003   3.30777
    R9        2.64237  -0.00003  -0.00006  -0.00004  -0.00009   2.64228
   R10        3.28731   0.00036   0.00005   0.00001   0.00006   3.28737
   R11        3.30563  -0.00000  -0.00006   0.00002  -0.00004   3.30559
    A1        2.17954   0.00001  -0.00001   0.00004   0.00003   2.17957
    A2        2.06763  -0.00003  -0.00002  -0.00010  -0.00012   2.06751
    A3        2.03602   0.00002   0.00003   0.00006   0.00009   2.03611
    A4        1.99925  -0.00001  -0.00001  -0.00002  -0.00003   1.99922
    A5        2.17944  -0.00001   0.00002  -0.00002  -0.00000   2.17943
    A6        2.06759   0.00000   0.00001  -0.00001   0.00000   2.06759
    A7        2.03616   0.00000  -0.00002   0.00003   0.00000   2.03616
    A8        2.06238  -0.00001  -0.00004   0.00000  -0.00004   2.06234
    A9        2.14036   0.00001   0.00005   0.00002   0.00007   2.14044
   A10        2.08044  -0.00001  -0.00001  -0.00003  -0.00004   2.08040
   A11        2.08369   0.00001   0.00002   0.00001   0.00004   2.08372
   A12        2.09981  -0.00001  -0.00004  -0.00001  -0.00005   2.09976
   A13        2.09969  -0.00000   0.00002  -0.00001   0.00002   2.09971
   A14        2.06207   0.00000   0.00002  -0.00001   0.00000   2.06208
   A15        2.14049   0.00001  -0.00002   0.00004   0.00002   2.14052
   A16        2.08062  -0.00001  -0.00000  -0.00003  -0.00003   2.08059
    D1        0.00000   0.00000   0.00000  -0.00000   0.00000   0.00000
    D2        3.14159  -0.00000   0.00000  -0.00000   0.00000   3.14159
    D3       -0.00000   0.00000   0.00000  -0.00000   0.00000   0.00000
    D4        3.14159  -0.00000   0.00000  -0.00000   0.00000   3.14159
    D5        3.14159   0.00000   0.00000   0.00000   0.00000   3.14159
    D6        0.00000  -0.00000   0.00000  -0.00000   0.00000   0.00000
    D7       -0.00000   0.00000   0.00000   0.00000   0.00000   0.00000
    D8        3.14159   0.00000   0.00000   0.00000   0.00000   3.14159
    D9       -0.00000  -0.00000   0.00000  -0.00000   0.00000   0.00000
   D10        3.14159  -0.00000   0.00000   0.00000   0.00000   3.14159
   D11        3.14159  -0.00000   0.00000  -0.00000   0.00000   3.14159
   D12        0.00000  -0.00000   0.00000  -0.00000  -0.00000   0.00000
   D13        0.00000  -0.00000   0.00000   0.00000  -0.00000   0.00000
   D14        3.14159   0.00000   0.00000   0.00000   0.00000   3.14159
   D15        3.14159  -0.00000   0.00000  -0.00000   0.00000   3.14159
   D16       -0.00000   0.00000   0.00000  -0.00000   0.00000   0.00000
   D17       -0.00000   0.00000   0.00000   0.00000   0.00000   0.00000
   D18        3.14159   0.00000   0.00000   0.00000   0.00000   3.14159
   D19        3.14159   0.00000   0.00000  -0.00000   0.00000   3.14159
   D20       -0.00000   0.00000   0.00000   0.00000   0.00000   0.00000
         Item               Value     Threshold  Converged?
 Maximum Force            0.000444     0.000450     YES
 RMS     Force            0.000085     0.000300     YES
 Maximum Displacement     0.000171     0.001800     YES
 RMS     Displacement     0.000053     0.001200     YES
 Predicted change in Energy=-2.477155D-08
 Optimization completed.
    -- Stationary point found.
                           ----------------------------
                           !   Optimized Parameters   !
                           ! (Angstroms and Degrees)  !
 --------------------------                            --------------------------
 ! Name  Definition              Value          Derivative Info.                !
 --------------------------------------------------------------------------------
 ! R1    R(1,2)                  1.3727         -DE/DX =    0.0                 !
 ! R2    R(1,6)                  1.3959         -DE/DX =    0.0                 !
 ! R3    R(1,8)                  1.7958         -DE/DX =    0.0001              !
 ! R4    R(2,3)                  1.3726         -DE/DX =    0.0                 !
 ! R5    R(3,4)                  1.3957         -DE/DX =    0.0                 !
 ! R6    R(3,9)                  1.7962         -DE/DX =    0.0                 !
 ! R7    R(4,5)                  1.3981         -DE/DX =    0.0                 !
 ! R8    R(4,10)                 1.7504         -DE/DX =   -0.0004              !
 ! R9    R(5,6)                  1.3983         -DE/DX =    0.0                 !
 ! R10   R(5,11)                 1.7396         -DE/DX =    0.0004              !
 ! R11   R(6,7)                  1.7493         -DE/DX =    0.0                 !
 ! A1    A(2,1,6)              124.8784         -DE/DX =    0.0                 !
 ! A2    A(2,1,8)              118.4662         -DE/DX =    0.0                 !
 ! A3    A(6,1,8)              116.6553         -DE/DX =    0.0                 !
 ! A4    A(1,2,3)              114.5486         -DE/DX =    0.0                 !
 ! A5    A(2,3,4)              124.8726         -DE/DX =    0.0                 !
 ! A6    A(2,3,9)              118.4641         -DE/DX =    0.0                 !
 ! A7    A(4,3,9)              116.6633         -DE/DX =    0.0                 !
 ! A8    A(3,4,5)              118.1657         -DE/DX =    0.0                 !
 ! A9    A(3,4,10)             122.6338         -DE/DX =    0.0                 !
 ! A10   A(5,4,10)             119.2005         -DE/DX =    0.0                 !
 ! A11   A(4,5,6)              119.3865         -DE/DX =    0.0                 !
 ! A12   A(4,5,11)             120.3101         -DE/DX =    0.0                 !
 ! A13   A(6,5,11)             120.3034         -DE/DX =    0.0                 !
 ! A14   A(1,6,5)              118.1482         -DE/DX =    0.0                 !
 ! A15   A(1,6,7)              122.6412         -DE/DX =    0.0                 !
 ! A16   A(5,6,7)              119.2107         -DE/DX =    0.0                 !
 ! D1    D(6,1,2,3)              0.0            -DE/DX =    0.0                 !
 ! D2    D(8,1,2,3)            180.0            -DE/DX =    0.0                 !
 ! D3    D(2,1,6,5)              0.0            -DE/DX =    0.0                 !
 ! D4    D(2,1,6,7)            180.0            -DE/DX =    0.0                 !
 ! D5    D(8,1,6,5)            180.0            -DE/DX =    0.0                 !
 ! D6    D(8,1,6,7)              0.0            -DE/DX =    0.0                 !
 ! D7    D(1,2,3,4)              0.0            -DE/DX =    0.0                 !
 ! D8    D(1,2,3,9)            180.0            -DE/DX =    0.0                 !
 ! D9    D(2,3,4,5)              0.0            -DE/DX =    0.0                 !
 ! D10   D(2,3,4,10)           180.0            -DE/DX =    0.0                 !
 ! D11   D(9,3,4,5)            180.0            -DE/DX =    0.0                 !
 ! D12   D(9,3,4,10)             0.0            -DE/DX =    0.0                 !
 ! D13   D(3,4,5,6)              0.0            -DE/DX =    0.0                 !
 ! D14   D(3,4,5,11)           180.0            -DE/DX =    0.0                 !
 ! D15   D(10,4,5,6)           180.0            -DE/DX =    0.0                 !
 ! D16   D(10,4,5,11)            0.0            -DE/DX =    0.0                 !
 ! D17   D(4,5,6,1)              0.0            -DE/DX =    0.0                 !
 ! D18   D(4,5,6,7)            180.0            -DE/DX =    0.0                 !
 ! D19   D(11,5,6,1)           180.0            -DE/DX =    0.0                 !
 ! D20   D(11,5,6,7)             0.0            -DE/DX =    0.0                 !
 --------------------------------------------------------------------------------
 GradGradGradGradGradGradGradGradGradGradGradGradGradGradGradGradGradGrad

                          Input orientation:                          
 ---------------------------------------------------------------------
 Center     Atomic      Atomic             Coordinates (Angstroms)
 Number     Number       Type             X           Y           Z
 ---------------------------------------------------------------------
      1          6           0        1.234912    0.619750    0.000000
      2          6           0        1.298873   -0.751438    0.000000
      3          6           0        0.078247   -1.379274   -0.000000
      4          6           0       -1.155154   -0.725999   -0.000000
      5          6           0       -1.161441    0.672135    0.000000
      6          6           0        0.053827    1.363742    0.000000
      7         17           0        0.040594    3.112955    0.000000
      8         17           0        2.772016    1.548342    0.000000
      9         17           0        0.039228   -3.175026   -0.000000
     10         17           0       -2.679263   -1.586828   -0.000000
     11         17           0       -2.667158    1.543301    0.000000
 ---------------------------------------------------------------------
                    Distance matrix (angstroms):
                    1          2          3          4          5
     1  C    0.000000
     2  C    1.372678   0.000000
     3  C    2.309539   1.372628   0.000000
     4  C    2.742892   2.454159   1.395725   0.000000
     5  C    2.396926   2.842483   2.396896   1.398149   0.000000
     6  C    1.395882   2.454409   2.743125   2.414260   1.398283
     7  Cl   2.764501   4.064086   4.492387   4.020868   2.720751
     8  Cl   1.795821   2.731142   3.978358   4.538204   4.029867
     9  Cl   3.978691   2.731389   1.796176   2.724754   4.030169
    10  Cl   4.493301   4.064904   2.765310   1.750409   2.721525
    11  Cl   4.009875   4.582055   4.009825   2.726880   1.739572
                    6          7          8          9         10
     6  C    0.000000
     7  Cl   1.749263   0.000000
     8  Cl   2.724451   3.147806   0.000000
     9  Cl   4.538791   6.287981   5.456954   0.000000
    10  Cl   4.021895   5.430063   6.288540   3.148422   0.000000
    11  Cl   2.726903   3.129813   5.439176   5.439406   3.130153
                   11
    11  Cl   0.000000
 Stoichiometry    C6Cl5(1-)
 Framework group  CS[SG(C6Cl5)]
 Deg. of freedom    19
 Full point group                 CS      NOp   2
 Largest Abelian subgroup         CS      NOp   2
 Largest concise Abelian subgroup C1      NOp   1
                         Standard orientation:                         
 ---------------------------------------------------------------------
 Center     Atomic      Atomic             Coordinates (Angstroms)
 Number     Number       Type             X           Y           Z
 ---------------------------------------------------------------------
      1          6           0       -1.155088    1.143228   -0.000000
      2          6           0       -0.000389    1.885466   -0.000000
      3          6           0        1.154451    1.143543    0.000000
      4          6           0        1.206912   -0.251196    0.000000
      5          6           0       -0.000000   -0.957017    0.000000
      6          6           0       -1.207348   -0.251676   -0.000000
      7         17           0       -2.714633   -1.139378   -0.000000
      8         17           0       -2.728764    2.008396   -0.000000
      9         17           0        2.728190    2.009334    0.000000
     10         17           0        2.715430   -1.139062    0.000000
     11         17           0        0.000293   -2.696589    0.000000
 ---------------------------------------------------------------------
 Rotational constants (GHZ):           0.7079898           0.4581147           0.2781402

 **********************************************************************

            Population analysis using the SCF Density.

 **********************************************************************

 Orbital symmetries:
       Occupied  (A') (A') (A') (A') (A') (A') (A') (A') (A') (A')
                 (A') (A') (A') (A') (A') (A') (A') (A") (A') (A')
                 (A') (A") (A") (A') (A') (A') (A') (A") (A") (A')
                 (A') (A') (A') (A') (A') (A') (A') (A') (A') (A')
                 (A') (A') (A') (A') (A") (A') (A') (A") (A') (A")
                 (A') (A') (A") (A") (A') (A') (A") (A') (A") (A")
                 (A')
       Virtual   (A') (A') (A') (A") (A') (A") (A') (A') (A") (A')
                 (A") (A') (A") (A') (A') (A') (A") (A") (A') (A')
                 (A') (A") (A') (A') (A') (A') (A") (A') (A") (A')
                 (A') (A") (A') (A') (A') (A") (A") (A') (A') (A")
                 (A') (A') (A') (A') (A') (A') (A') (A') (A') (A')
                 (A') (A') (A') (A') (A') (A") (A') (A') (A") (A')
                 (A') (A") (A') (A') (A') (A') (A") (A") (A') (A')
                 (A") (A') (A") (A") (A') (A") (A") (A') (A') (A')
                 (A") (A') (A') (A') (A") (A') (A') (A") (A') (A')
                 (A") (A') (A") (A') (A") (A') (A') (A") (A") (A")
                 (A') (A') (A') (A") (A') (A') (A') (A') (A') (A')
                 (A') (A") (A') (A') (A") (A') (A') (A') (A') (A')
                 (A") (A') (A') (A") (A') (A') (A") (A') (A") (A")
                 (A') (A') (A') (A') (A') (A') (A") (A") (A') (A')
                 (A') (A') (A") (A") (A") (A') (A') (A') (A') (A")
                 (A') (A") (A") (A") (A') (A") (A") (A') (A') (A')
                 (A') (A') (A') (A') (A') (A') (A') (A') (A") (A')
                 (A") (A") (A") (A") (A') (A") (A') (A') (A') (A')
                 (A') (A') (A') (A') (A') (A') (A') (A') (A') (A')
                 (A') (A') (A') (A') (A') (A') (A') (A') (A') (A")
                 (A") (A") (A") (A") (A') (A') (A') (A') (A') (A')
                 (A') (A') (A') (A') (A') (A') (A') (A') (A')
 The electronic state is 1-A'.
 Alpha  occ. eigenvalues -- -102.57252-102.56416-102.56408-102.53002-102.52997
 Alpha  occ. eigenvalues --  -10.50204 -10.49809 -10.49800 -10.47596 -10.47596
 Alpha  occ. eigenvalues --  -10.37049  -9.71532  -9.70693  -9.70683  -9.67286
 Alpha  occ. eigenvalues --   -9.67281  -7.44051  -7.43377  -7.43350  -7.43202
 Alpha  occ. eigenvalues --   -7.43192  -7.42546  -7.42536  -7.42510  -7.42501
 Alpha  occ. eigenvalues --   -7.39757  -7.39752  -7.39159  -7.39154  -7.39121
 Alpha  occ. eigenvalues --   -7.39116  -0.91703  -0.86637  -0.84786  -0.81540
 Alpha  occ. eigenvalues --   -0.80648  -0.77073  -0.68010  -0.67438  -0.54867
 Alpha  occ. eigenvalues --   -0.54318  -0.44821  -0.44367  -0.39648  -0.38776
 Alpha  occ. eigenvalues --   -0.37645  -0.35720  -0.32485  -0.31623  -0.30780
 Alpha  occ. eigenvalues --   -0.28395  -0.28347  -0.27936  -0.26932  -0.25768
 Alpha  occ. eigenvalues --   -0.23865  -0.23693  -0.22598  -0.16379  -0.16121
 Alpha  occ. eigenvalues --   -0.11444
 Alpha virt. eigenvalues --    0.10532   0.12232   0.13413   0.13585   0.14252
 Alpha virt. eigenvalues --    0.14382   0.14476   0.14677   0.16379   0.17480
 Alpha virt. eigenvalues --    0.18113   0.18284   0.18947   0.19132   0.19383
 Alpha virt. eigenvalues --    0.20303   0.21085   0.21157   0.21321   0.21676
 Alpha virt. eigenvalues --    0.22089   0.22919   0.23411   0.24729   0.25402
 Alpha virt. eigenvalues --    0.26338   0.26464   0.27044   0.27378   0.27914
 Alpha virt. eigenvalues --    0.28448   0.28607   0.30560   0.30847   0.31399
 Alpha virt. eigenvalues --    0.31802   0.32891   0.34081   0.34217   0.34431
 Alpha virt. eigenvalues --    0.35290   0.35923   0.36529   0.37067   0.37824
 Alpha virt. eigenvalues --    0.38932   0.39760   0.40411   0.41867   0.42130
 Alpha virt. eigenvalues --    0.44179   0.44239   0.47340   0.47711   0.55250
 Alpha virt. eigenvalues --    0.55930   0.57486   0.57861   0.58781   0.59331
 Alpha virt. eigenvalues --    0.60616   0.60843   0.61369   0.62266   0.63386
 Alpha virt. eigenvalues --    0.63388   0.63581   0.63623   0.65420   0.66783
 Alpha virt. eigenvalues --    0.68574   0.73134   0.74359   0.75047   0.76622
 Alpha virt. eigenvalues --    0.78415   0.78650   0.79920   0.81138   0.82849
 Alpha virt. eigenvalues --    0.83871   0.84678   0.85308   0.86215   0.91901
 Alpha virt. eigenvalues --    0.92858   1.00057   1.00649   1.01474   1.02666
 Alpha virt. eigenvalues --    1.02722   1.03097   1.03500   1.03748   1.04526
 Alpha virt. eigenvalues --    1.04709   1.05994   1.06223   1.07492   1.08847
 Alpha virt. eigenvalues --    1.09567   1.09907   1.10515   1.10755   1.11225
 Alpha virt. eigenvalues --    1.11473   1.12750   1.13706   1.14652   1.15544
 Alpha virt. eigenvalues --    1.15861   1.17533   1.18725   1.19612   1.19806
 Alpha virt. eigenvalues --    1.23980   1.29974   1.35369   1.37349   1.38646
 Alpha virt. eigenvalues --    1.40721   1.40854   1.42897   1.45274   1.45311
 Alpha virt. eigenvalues --    1.47223   1.47838   1.48771   1.49815   1.51867
 Alpha virt. eigenvalues --    1.60281   1.65560   1.66715   1.72018   1.80052
 Alpha virt. eigenvalues --    1.86074   1.93592   1.95816   1.96501   2.01086
 Alpha virt. eigenvalues --    2.03210   2.03816   2.06515   2.07527   2.15584
 Alpha virt. eigenvalues --    2.24205   2.27728   2.36094   2.38532   2.38597
 Alpha virt. eigenvalues --    2.39667   2.40651   2.43045   2.45415   2.47405
 Alpha virt. eigenvalues --    2.48043   2.48137   2.49256   2.54012   2.55798
 Alpha virt. eigenvalues --    2.56123   2.61043   2.62696   2.64894   2.68168
 Alpha virt. eigenvalues --    2.69588   2.71641   2.78740   2.81493   2.82766
 Alpha virt. eigenvalues --    2.95457   2.96763   3.06643   3.08722   3.08896
 Alpha virt. eigenvalues --    3.26810   3.28677   3.30913   3.32083   3.32183
 Alpha virt. eigenvalues --    3.42008   3.47716   3.67377   3.71121   3.89082
 Alpha virt. eigenvalues --    4.08887   4.10085   4.92193  10.00300  10.09934
 Alpha virt. eigenvalues --   10.11144  10.12741  10.13630  23.44690  24.02866
 Alpha virt. eigenvalues --   24.03526  24.18182  24.19884  24.36353  25.98909
 Alpha virt. eigenvalues --   26.03091  26.05879  26.09792  26.14331  26.26114
 Alpha virt. eigenvalues --   26.30614  26.37394  26.39142  26.44326  26.58918
 Alpha virt. eigenvalues --   26.77256  26.80431  26.98346  27.04581 216.09318
 Alpha virt. eigenvalues --  216.20401 216.21671 216.23612 216.24671
          Condensed to atoms (all electrons):
               1          2          3          4          5          6
     1  C   23.722725   2.772308  -3.086293   2.241279  -4.835794 -12.973581
     2  C    2.772308  28.114792   2.780605 -13.458944  -0.882611 -13.437245
     3  C   -3.086293   2.780605  23.731254 -12.989549  -4.840457   2.243095
     4  C    2.241279 -13.458944 -12.989549  34.780416   0.605074  -3.938107
     5  C   -4.835794  -0.882611  -4.840457   0.605074  16.239879   0.588896
     6  C  -12.973581 -13.437245   2.243095  -3.938107   0.588896  34.757717
     7  Cl  -0.026855   0.562777   0.350293  -0.674989   0.710770  -1.560964
     8  Cl  -0.847360  -0.754524  -0.752084   0.343316  -0.020764   1.146508
     9  Cl  -0.752121  -0.752191  -0.845928   1.143037  -0.021183   0.343786
    10  Cl   0.349843   0.561690  -0.027393  -1.555569   0.710700  -0.675787
    11  Cl   0.058635   0.152435   0.058815   0.333848  -1.639950   0.336467
               7          8          9         10         11
     1  C   -0.026855  -0.847360  -0.752121   0.349843   0.058635
     2  C    0.562777  -0.754524  -0.752191   0.561690   0.152435
     3  C    0.350293  -0.752084  -0.845928  -0.027393   0.058815
     4  C   -0.674989   0.343316   1.143037  -1.555569   0.333848
     5  C    0.710770  -0.020764  -0.021183   0.710700  -1.639950
     6  C   -1.560964   1.146508   0.343786  -0.675787   0.336467
     7  Cl  18.031313  -0.496235  -0.005710   0.017386  -0.420279
     8  Cl  -0.496235  18.047742  -0.023301  -0.005728   0.033882
     9  Cl  -0.005710  -0.023301  18.046507  -0.495219   0.033787
    10  Cl   0.017386  -0.005728  -0.495219  18.027604  -0.419575
    11  Cl  -0.420279   0.033882   0.033787  -0.419575  17.974154
 Mulliken charges:
               1
     1  C   -0.622787
     2  C    0.340908
     3  C   -0.622357
     4  C   -0.829813
     5  C   -0.614562
     6  C   -0.830787
     7  Cl   0.512491
     8  Cl   0.328546
     9  Cl   0.328535
    10  Cl   0.512046
    11  Cl   0.497780
 Sum of Mulliken charges =  -1.00000
 Mulliken charges with hydrogens summed into heavy atoms:
               1
     1  C   -0.622787
     2  C    0.340908
     3  C   -0.622357
     4  C   -0.829813
     5  C   -0.614562
     6  C   -0.830787
     7  Cl   0.512491
     8  Cl   0.328546
     9  Cl   0.328535
    10  Cl   0.512046
    11  Cl   0.497780
 Electronic spatial extent (au):  <R**2>=           3422.6881
 Charge=             -1.0000 electrons
 Dipole moment (field-independent basis, Debye):
    X=             -0.0058    Y=             -5.0092    Z=              0.0000  Tot=              5.0092
 Quadrupole moment (field-independent basis, Debye-Ang):
   XX=           -123.6587   YY=           -125.0940   ZZ=           -101.8616
   XY=              0.0030   XZ=              0.0000   YZ=             -0.0000
 Traceless Quadrupole moment (field-independent basis, Debye-Ang):
   XX=             -6.7872   YY=             -8.2226   ZZ=             15.0098
   XY=              0.0030   XZ=              0.0000   YZ=             -0.0000
 Octapole moment (field-independent basis, Debye-Ang**2):
  XXX=             -0.0581  YYY=            -60.3089  ZZZ=              0.0000  XYY=             -0.0193
  XXY=            -26.3457  XXZ=              0.0000  XZZ=             -0.0070  YZZ=             -6.7128
  YYZ=              0.0000  XYZ=              0.0000
 Hexadecapole moment (field-independent basis, Debye-Ang**3):
 XXXX=          -2763.2177 YYYY=          -1931.2532 ZZZZ=           -124.2300 XXXY=              0.0096
 XXXZ=              0.0000 YYYX=             -0.0229 YYYZ=             -0.0000 ZZZX=             -0.0000
 ZZZY=             -0.0000 XXYY=           -788.1402 XXZZ=           -473.5901 YYZZ=           -331.8122
 XXYZ=              0.0000 YYXZ=              0.0000 ZZXY=             -0.0017
 N-N= 1.050513111648D+03 E-N=-8.119900463609D+03  KE= 2.523938691637D+03
 Symmetry A'   KE= 2.288058629293D+03
 Symmetry A"   KE= 2.358800623440D+02
 1\1\GINC-SH02-01N49\FOpt\RM062X\6-311++G(d,p)\C6Cl5(1-)\JLAPIER\03-Apr
 -2026\0\\# opt freq 6-311++g(d,p) m062x\\1,2,4,5 Tetrachlorobenzene an
 ion radical\\-1,1\C,1.2349123667,0.619749681,0.\C,1.2988732157,-0.7514
 377462,0.\C,0.0782474064,-1.3792744224,0.\C,-1.1551543411,-0.725999027
 6,0.\C,-1.1614413435,0.6721354344,0.\C,0.0538268131,1.3637416053,0.\Cl
 ,0.0405937491,3.1129546919,0.\Cl,2.7720163386,1.5483423147,0.\Cl,0.039
 2279173,-3.17502613,0.\Cl,-2.6792625601,-1.5868284116,0.\Cl,-2.6671575
 621,1.5433010105,0.\\Version=ES64L-G16RevB.01\State=1-A'\HF=-2529.6027
 136\RMSD=4.508e-09\RMSF=1.463e-04\Dipole=-1.7045373,0.9892066,0.\Quadr
 upole=-5.8474352,-5.3119893,11.1594244,0.4615599,0.,0.\PG=CS [SG(C6Cl5
 )]\\@


 IN THE WOODS WE RETURN TO REASON AND FAITH.

                                 -- EMERSON
 Job cpu time:       0 days  1 hours 48 minutes 16.6 seconds.
 Elapsed time:       0 days  0 hours 27 minutes 21.8 seconds.
 File lengths (MBytes):  RWF=     60 Int=      0 D2E=      0 Chk=      9 Scr=      1
 Normal termination of Gaussian 16 at Fri Apr  3 12:36:34 2026.
 Link1:  Proceeding to internal job step number  2.
 ----------------------------------------------------------------------
 #N Geom=AllCheck Guess=TCheck SCRF=Check GenChk RM062X/6-311++G(d,p) F
 req
 ----------------------------------------------------------------------
 1/10=4,29=7,30=1,38=1,40=1/1,3;
 2/12=2,40=1/2;
 3/5=4,6=6,7=1111,11=2,14=-4,25=1,30=1,70=2,71=2,74=-55,116=1,140=1/1,2,3;
 4/5=101/1;
 5/5=2,38=6,98=1/2;
 8/6=4,10=90,11=11/1;
 11/6=1,8=1,9=11,15=111,16=1/1,2,10;
 10/6=1/2;
 6/7=2,8=2,9=2,10=2,28=1/1;
 7/8=1,10=1,25=1/1,2,3,16;
 1/10=4,30=1/3;
 99//99;
 Structure from the checkpoint file:  "frequency_chks/Hexachlorobenzene_anion_product_Freq.chk"
 ----------------------------------------
 1,2,4,5 Tetrachlorobenzene anion radical
 ----------------------------------------
 Charge = -1 Multiplicity = 1
 Redundant internal coordinates found in file.  (old form).
 C,0,1.2349123667,0.619749681,0.
 C,0,1.2988732157,-0.7514377462,0.
 C,0,0.0782474064,-1.3792744224,0.
 C,0,-1.1551543411,-0.7259990276,0.
 C,0,-1.1614413435,0.6721354344,0.
 C,0,0.0538268131,1.3637416053,0.
 Cl,0,0.0405937491,3.1129546919,0.
 Cl,0,2.7720163386,1.5483423147,0.
 Cl,0,0.0392279173,-3.17502613,0.
 Cl,0,-2.6792625601,-1.5868284116,0.
 Cl,0,-2.6671575621,1.5433010105,0.
 Recover connectivity data from disk.

 GradGradGradGradGradGradGradGradGradGradGradGradGradGradGradGradGradGrad
 Berny optimization.
 Initialization pass.
                           ----------------------------
                           !    Initial Parameters    !
                           ! (Angstroms and Degrees)  !
 --------------------------                            --------------------------
 ! Name  Definition              Value          Derivative Info.                !
 --------------------------------------------------------------------------------
 ! R1    R(1,2)                  1.3727         calculate D2E/DX2 analytically  !
 ! R2    R(1,6)                  1.3959         calculate D2E/DX2 analytically  !
 ! R3    R(1,8)                  1.7958         calculate D2E/DX2 analytically  !
 ! R4    R(2,3)                  1.3726         calculate D2E/DX2 analytically  !
 ! R5    R(3,4)                  1.3957         calculate D2E/DX2 analytically  !
 ! R6    R(3,9)                  1.7962         calculate D2E/DX2 analytically  !
 ! R7    R(4,5)                  1.3981         calculate D2E/DX2 analytically  !
 ! R8    R(4,10)                 1.7504         calculate D2E/DX2 analytically  !
 ! R9    R(5,6)                  1.3983         calculate D2E/DX2 analytically  !
 ! R10   R(5,11)                 1.7396         calculate D2E/DX2 analytically  !
 ! R11   R(6,7)                  1.7493         calculate D2E/DX2 analytically  !
 ! A1    A(2,1,6)              124.8784         calculate D2E/DX2 analytically  !
 ! A2    A(2,1,8)              118.4662         calculate D2E/DX2 analytically  !
 ! A3    A(6,1,8)              116.6553         calculate D2E/DX2 analytically  !
 ! A4    A(1,2,3)              114.5486         calculate D2E/DX2 analytically  !
 ! A5    A(2,3,4)              124.8726         calculate D2E/DX2 analytically  !
 ! A6    A(2,3,9)              118.4641         calculate D2E/DX2 analytically  !
 ! A7    A(4,3,9)              116.6633         calculate D2E/DX2 analytically  !
 ! A8    A(3,4,5)              118.1657         calculate D2E/DX2 analytically  !
 ! A9    A(3,4,10)             122.6338         calculate D2E/DX2 analytically  !
 ! A10   A(5,4,10)             119.2005         calculate D2E/DX2 analytically  !
 ! A11   A(4,5,6)              119.3865         calculate D2E/DX2 analytically  !
 ! A12   A(4,5,11)             120.3101         calculate D2E/DX2 analytically  !
 ! A13   A(6,5,11)             120.3034         calculate D2E/DX2 analytically  !
 ! A14   A(1,6,5)              118.1482         calculate D2E/DX2 analytically  !
 ! A15   A(1,6,7)              122.6412         calculate D2E/DX2 analytically  !
 ! A16   A(5,6,7)              119.2107         calculate D2E/DX2 analytically  !
 ! D1    D(6,1,2,3)              0.0            calculate D2E/DX2 analytically  !
 ! D2    D(8,1,2,3)            180.0            calculate D2E/DX2 analytically  !
 ! D3    D(2,1,6,5)              0.0            calculate D2E/DX2 analytically  !
 ! D4    D(2,1,6,7)            180.0            calculate D2E/DX2 analytically  !
 ! D5    D(8,1,6,5)            180.0            calculate D2E/DX2 analytically  !
 ! D6    D(8,1,6,7)              0.0            calculate D2E/DX2 analytically  !
 ! D7    D(1,2,3,4)              0.0            calculate D2E/DX2 analytically  !
 ! D8    D(1,2,3,9)            180.0            calculate D2E/DX2 analytically  !
 ! D9    D(2,3,4,5)              0.0            calculate D2E/DX2 analytically  !
 ! D10   D(2,3,4,10)           180.0            calculate D2E/DX2 analytically  !
 ! D11   D(9,3,4,5)            180.0            calculate D2E/DX2 analytically  !
 ! D12   D(9,3,4,10)             0.0            calculate D2E/DX2 analytically  !
 ! D13   D(3,4,5,6)              0.0            calculate D2E/DX2 analytically  !
 ! D14   D(3,4,5,11)           180.0            calculate D2E/DX2 analytically  !
 ! D15   D(10,4,5,6)           180.0            calculate D2E/DX2 analytically  !
 ! D16   D(10,4,5,11)            0.0            calculate D2E/DX2 analytically  !
 ! D17   D(4,5,6,1)              0.0            calculate D2E/DX2 analytically  !
 ! D18   D(4,5,6,7)            180.0            calculate D2E/DX2 analytically  !
 ! D19   D(11,5,6,1)           180.0            calculate D2E/DX2 analytically  !
 ! D20   D(11,5,6,7)             0.0            calculate D2E/DX2 analytically  !
 --------------------------------------------------------------------------------
 Trust Radius=3.00D-01 FncErr=1.00D-07 GrdErr=1.00D-07 EigMax=2.50D+02 EigMin=1.00D-04
 Number of steps in this run=      2 maximum allowed number of steps=      2.
 GradGradGradGradGradGradGradGradGradGradGradGradGradGradGradGradGradGrad

                          Input orientation:                          
 ---------------------------------------------------------------------
 Center     Atomic      Atomic             Coordinates (Angstroms)
 Number     Number       Type             X           Y           Z
 ---------------------------------------------------------------------
      1          6           0        1.234912    0.619750    0.000000
      2          6           0        1.298873   -0.751438    0.000000
      3          6           0        0.078247   -1.379274   -0.000000
      4          6           0       -1.155154   -0.725999   -0.000000
      5          6           0       -1.161441    0.672135    0.000000
      6          6           0        0.053827    1.363742    0.000000
      7         17           0        0.040594    3.112955    0.000000
      8         17           0        2.772016    1.548342    0.000000
      9         17           0        0.039228   -3.175026   -0.000000
     10         17           0       -2.679263   -1.586828   -0.000000
     11         17           0       -2.667158    1.543301    0.000000
 ---------------------------------------------------------------------
                    Distance matrix (angstroms):
                    1          2          3          4          5
     1  C    0.000000
     2  C    1.372678   0.000000
     3  C    2.309539   1.372628   0.000000
     4  C    2.742892   2.454159   1.395725   0.000000
     5  C    2.396926   2.842483   2.396896   1.398149   0.000000
     6  C    1.395882   2.454409   2.743125   2.414260   1.398283
     7  Cl   2.764501   4.064086   4.492387   4.020868   2.720751
     8  Cl   1.795821   2.731142   3.978358   4.538204   4.029867
     9  Cl   3.978691   2.731389   1.796176   2.724754   4.030169
    10  Cl   4.493301   4.064904   2.765310   1.750409   2.721525
    11  Cl   4.009875   4.582055   4.009825   2.726880   1.739572
                    6          7          8          9         10
     6  C    0.000000
     7  Cl   1.749263   0.000000
     8  Cl   2.724451   3.147806   0.000000
     9  Cl   4.538791   6.287981   5.456954   0.000000
    10  Cl   4.021895   5.430063   6.288540   3.148422   0.000000
    11  Cl   2.726903   3.129813   5.439176   5.439406   3.130153
                   11
    11  Cl   0.000000
 Stoichiometry    C6Cl5(1-)
 Framework group  CS[SG(C6Cl5)]
 Deg. of freedom    19
 Full point group                 CS      NOp   2
 Largest Abelian subgroup         CS      NOp   2
 Largest concise Abelian subgroup C1      NOp   1
                         Standard orientation:                         
 ---------------------------------------------------------------------
 Center     Atomic      Atomic             Coordinates (Angstroms)
 Number     Number       Type             X           Y           Z
 ---------------------------------------------------------------------
      1          6           0       -1.155088    1.143228   -0.000000
      2          6           0       -0.000389    1.885466    0.000000
      3          6           0        1.154451    1.143543    0.000000
      4          6           0        1.206912   -0.251196    0.000000
      5          6           0       -0.000000   -0.957017   -0.000000
      6          6           0       -1.207348   -0.251676   -0.000000
      7         17           0       -2.714633   -1.139378   -0.000000
      8         17           0       -2.728764    2.008396   -0.000000
      9         17           0        2.728190    2.009334    0.000000
     10         17           0        2.715430   -1.139062    0.000000
     11         17           0        0.000293   -2.696589   -0.000000
 ---------------------------------------------------------------------
 Rotational constants (GHZ):           0.7079898           0.4581147           0.2781402
 Standard basis: 6-311++G(d,p) (5D, 7F)
 There are   217 symmetry adapted cartesian basis functions of A'  symmetry.
 There are    76 symmetry adapted cartesian basis functions of A"  symmetry.
 There are   206 symmetry adapted basis functions of A'  symmetry.
 There are    76 symmetry adapted basis functions of A"  symmetry.
   282 basis functions,   481 primitive gaussians,   293 cartesian basis functions
    61 alpha electrons       61 beta electrons
       nuclear repulsion energy      1050.5131116483 Hartrees.
 NAtoms=   11 NActive=   11 NUniq=   11 SFac= 1.00D+00 NAtFMM=   60 NAOKFM=F Big=F
 Integral buffers will be    131072 words long.
 Raffenetti 2 integral format.
 Two-electron integral symmetry is turned on.
 One-electron integrals computed using PRISM.
 NBasis=   282 RedAO= T EigKep=  1.89D-06  NBF=   206    76
 NBsUse=   280 1.00D-06 EigRej=  6.74D-07 NBFU=   204    76
 Initial guess from the checkpoint file:  "frequency_chks/Hexachlorobenzene_anion_product_Freq.chk"
 B after Tr=    -0.000000   -0.000000    0.000000
         Rot=    1.000000   -0.000000   -0.000000   -0.000000 Ang=   0.00 deg.
 Initial guess orbital symmetries:
       Occupied  (A') (A') (A') (A') (A') (A') (A') (A') (A') (A')
                 (A') (A') (A') (A') (A') (A') (A') (A") (A') (A')
                 (A') (A") (A") (A') (A') (A') (A') (A") (A") (A')
                 (A') (A') (A') (A') (A') (A') (A') (A') (A') (A')
                 (A') (A') (A') (A') (A") (A') (A') (A") (A') (A")
                 (A') (A') (A") (A") (A') (A') (A") (A') (A") (A")
                 (A')
       Virtual   (A') (A') (A') (A") (A') (A") (A') (A') (A") (A')
                 (A") (A') (A") (A') (A') (A') (A") (A") (A') (A')
                 (A') (A") (A') (A') (A') (A') (A") (A') (A") (A')
                 (A') (A") (A') (A') (A') (A") (A") (A') (A') (A")
                 (A') (A') (A') (A') (A') (A') (A') (A') (A') (A')
                 (A') (A') (A') (A') (A') (A") (A') (A') (A") (A')
                 (A') (A") (A') (A') (A') (A') (A") (A") (A') (A')
                 (A") (A') (A") (A") (A') (A") (A") (A') (A') (A')
                 (A") (A') (A') (A') (A") (A') (A') (A") (A') (A')
                 (A") (A') (A") (A') (A") (A') (A') (A") (A") (A")
                 (A') (A') (A') (A") (A') (A') (A') (A') (A') (A')
                 (A') (A") (A') (A') (A") (A') (A') (A') (A') (A')
                 (A") (A') (A') (A") (A') (A') (A") (A') (A") (A")
                 (A') (A') (A') (A') (A') (A') (A") (A") (A') (A')
                 (A') (A') (A") (A") (A") (A') (A') (A') (A') (A")
                 (A') (A") (A") (A") (A') (A") (A") (A') (A') (A')
                 (A') (A') (A') (A') (A') (A') (A') (A') (A") (A')
                 (A") (A") (A") (A") (A') (A") (A') (A') (A') (A')
                 (A') (A') (A') (A') (A') (A') (A') (A') (A') (A')
                 (A') (A') (A') (A') (A') (A') (A') (A') (A') (A")
                 (A") (A") (A") (A") (A') (A') (A') (A') (A') (A')
                 (A') (A') (A') (A') (A') (A') (A') (A') (A')
 Requested convergence on RMS density matrix=1.00D-08 within 128 cycles.
 Requested convergence on MAX density matrix=1.00D-06.
 Requested convergence on             energy=1.00D-06.
 No special actions if energy rises.
 SCF Done:  E(RM062X) =  -2529.60271362     A.U. after    1 cycles
            NFock=  1  Conv=0.62D-08     -V/T= 2.0022
 DoSCS=F DFT=T ScalE2(SS,OS)=  1.000000  1.000000
 Range of M.O.s used for correlation:     1   280
 NBasis=   282 NAE=    61 NBE=    61 NFC=     0 NFV=     0
 NROrb=    280 NOA=    61 NOB=    61 NVA=   219 NVB=   219

 **** Warning!!: The largest alpha MO coefficient is  0.27737281D+03

 Symmetrizing basis deriv contribution to polar:
 IMax=3 JMax=2 DiffMx= 0.00D+00
 G2DrvN: will do    12 centers at a time, making    1 passes.
 Calling FoFCou, ICntrl=  3107 FMM=F I1Cent=   0 AccDes= 0.00D+00.
 End of G2Drv F.D. properties file   721 does not exist.
 End of G2Drv F.D. properties file   722 does not exist.
 End of G2Drv F.D. properties file   788 does not exist.
          IDoAtm=11111111111
          Differentiating once with respect to electric field.
                with respect to dipole field.
          Differentiating once with respect to nuclear coordinates.
 CalDSu exits because no D1Ps are significant.
          There are    36 degrees of freedom in the 1st order CPHF.  IDoFFX=6 NUNeed=     3.
     33 vectors produced by pass  0 Test12= 3.71D-14 2.78D-09 XBig12= 1.40D+02 5.93D+00.
 AX will form    33 AO Fock derivatives at one time.
     33 vectors produced by pass  1 Test12= 3.71D-14 2.78D-09 XBig12= 2.86D+01 1.14D+00.
     33 vectors produced by pass  2 Test12= 3.71D-14 2.78D-09 XBig12= 8.49D-01 2.13D-01.
     33 vectors produced by pass  3 Test12= 3.71D-14 2.78D-09 XBig12= 4.67D-02 3.56D-02.
     33 vectors produced by pass  4 Test12= 3.71D-14 2.78D-09 XBig12= 9.33D-04 4.78D-03.
     33 vectors produced by pass  5 Test12= 3.71D-14 2.78D-09 XBig12= 7.85D-06 5.08D-04.
     33 vectors produced by pass  6 Test12= 3.71D-14 2.78D-09 XBig12= 5.56D-08 3.12D-05.
     28 vectors produced by pass  7 Test12= 3.71D-14 2.78D-09 XBig12= 4.01D-10 2.58D-06.
      9 vectors produced by pass  8 Test12= 3.71D-14 2.78D-09 XBig12= 2.02D-12 1.60D-07.
      2 vectors produced by pass  9 Test12= 3.71D-14 2.78D-09 XBig12= 1.02D-14 1.45D-08.
 InvSVY:  IOpt=1 It=  1 EMax= 5.33D-15
 Solved reduced A of dimension   270 with    36 vectors.
 Isotropic polarizability for W=    0.000000      144.38 Bohr**3.
 End of Minotr F.D. properties file   721 does not exist.
 End of Minotr F.D. properties file   722 does not exist.
 End of Minotr F.D. properties file   788 does not exist.

 **********************************************************************

            Population analysis using the SCF Density.

 **********************************************************************

 Orbital symmetries:
       Occupied  (A') (A') (A') (A') (A') (A') (A') (A') (A') (A')
                 (A') (A') (A') (A') (A') (A') (A') (A") (A') (A')
                 (A') (A") (A") (A') (A') (A') (A') (A") (A") (A')
                 (A') (A') (A') (A') (A') (A') (A') (A') (A') (A')
                 (A') (A') (A') (A') (A") (A') (A') (A") (A') (A")
                 (A') (A') (A") (A") (A') (A') (A") (A') (A") (A")
                 (A')
       Virtual   (A') (A') (A') (A") (A') (A") (A') (A') (A") (A')
                 (A") (A') (A") (A') (A') (A') (A") (A") (A') (A')
                 (A') (A") (A') (A') (A') (A') (A") (A') (A") (A')
                 (A') (A") (A') (A') (A') (A") (A") (A') (A') (A")
                 (A') (A') (A') (A') (A') (A') (A') (A') (A') (A')
                 (A') (A') (A') (A') (A') (A") (A') (A') (A") (A')
                 (A') (A") (A') (A') (A') (A') (A") (A") (A') (A')
                 (A") (A') (A") (A") (A') (A") (A") (A') (A') (A')
                 (A") (A') (A') (A') (A") (A') (A') (A") (A') (A')
                 (A") (A') (A") (A') (A") (A') (A') (A") (A") (A")
                 (A') (A') (A') (A") (A') (A') (A') (A') (A') (A')
                 (A') (A") (A') (A') (A") (A') (A') (A') (A') (A')
                 (A") (A') (A') (A") (A') (A') (A") (A') (A") (A")
                 (A') (A') (A') (A') (A') (A') (A") (A") (A') (A')
                 (A') (A') (A") (A") (A") (A') (A') (A') (A') (A")
                 (A') (A") (A") (A") (A') (A") (A") (A') (A') (A')
                 (A') (A') (A') (A') (A') (A') (A') (A') (A") (A')
                 (A") (A") (A") (A") (A') (A") (A') (A') (A') (A')
                 (A') (A') (A') (A') (A') (A') (A') (A') (A') (A')
                 (A') (A') (A') (A') (A') (A') (A') (A') (A') (A")
                 (A") (A") (A") (A") (A') (A') (A') (A') (A') (A')
                 (A') (A') (A') (A') (A') (A') (A') (A') (A')
 The electronic state is 1-A'.
 Alpha  occ. eigenvalues -- -102.57252-102.56416-102.56408-102.53002-102.52997
 Alpha  occ. eigenvalues --  -10.50204 -10.49809 -10.49800 -10.47596 -10.47596
 Alpha  occ. eigenvalues --  -10.37049  -9.71532  -9.70693  -9.70683  -9.67286
 Alpha  occ. eigenvalues --   -9.67281  -7.44051  -7.43377  -7.43350  -7.43202
 Alpha  occ. eigenvalues --   -7.43192  -7.42546  -7.42536  -7.42510  -7.42501
 Alpha  occ. eigenvalues --   -7.39757  -7.39752  -7.39159  -7.39154  -7.39121
 Alpha  occ. eigenvalues --   -7.39116  -0.91703  -0.86637  -0.84786  -0.81540
 Alpha  occ. eigenvalues --   -0.80648  -0.77073  -0.68010  -0.67438  -0.54867
 Alpha  occ. eigenvalues --   -0.54318  -0.44821  -0.44367  -0.39648  -0.38776
 Alpha  occ. eigenvalues --   -0.37645  -0.35720  -0.32485  -0.31623  -0.30780
 Alpha  occ. eigenvalues --   -0.28395  -0.28347  -0.27936  -0.26932  -0.25768
 Alpha  occ. eigenvalues --   -0.23865  -0.23693  -0.22598  -0.16379  -0.16121
 Alpha  occ. eigenvalues --   -0.11444
 Alpha virt. eigenvalues --    0.10532   0.12232   0.13413   0.13585   0.14252
 Alpha virt. eigenvalues --    0.14382   0.14476   0.14677   0.16379   0.17480
 Alpha virt. eigenvalues --    0.18113   0.18284   0.18947   0.19132   0.19383
 Alpha virt. eigenvalues --    0.20303   0.21085   0.21157   0.21321   0.21676
 Alpha virt. eigenvalues --    0.22089   0.22919   0.23411   0.24729   0.25402
 Alpha virt. eigenvalues --    0.26338   0.26464   0.27044   0.27378   0.27914
 Alpha virt. eigenvalues --    0.28448   0.28607   0.30560   0.30847   0.31399
 Alpha virt. eigenvalues --    0.31802   0.32891   0.34081   0.34217   0.34431
 Alpha virt. eigenvalues --    0.35290   0.35923   0.36529   0.37067   0.37824
 Alpha virt. eigenvalues --    0.38932   0.39760   0.40411   0.41867   0.42130
 Alpha virt. eigenvalues --    0.44179   0.44239   0.47340   0.47711   0.55250
 Alpha virt. eigenvalues --    0.55930   0.57486   0.57861   0.58781   0.59331
 Alpha virt. eigenvalues --    0.60616   0.60843   0.61369   0.62266   0.63386
 Alpha virt. eigenvalues --    0.63388   0.63581   0.63623   0.65420   0.66783
 Alpha virt. eigenvalues --    0.68574   0.73134   0.74359   0.75047   0.76622
 Alpha virt. eigenvalues --    0.78415   0.78650   0.79920   0.81138   0.82849
 Alpha virt. eigenvalues --    0.83871   0.84678   0.85308   0.86215   0.91901
 Alpha virt. eigenvalues --    0.92858   1.00057   1.00649   1.01474   1.02666
 Alpha virt. eigenvalues --    1.02722   1.03097   1.03500   1.03748   1.04526
 Alpha virt. eigenvalues --    1.04709   1.05994   1.06223   1.07492   1.08847
 Alpha virt. eigenvalues --    1.09567   1.09907   1.10515   1.10755   1.11225
 Alpha virt. eigenvalues --    1.11473   1.12750   1.13706   1.14652   1.15544
 Alpha virt. eigenvalues --    1.15861   1.17533   1.18725   1.19612   1.19806
 Alpha virt. eigenvalues --    1.23980   1.29974   1.35369   1.37349   1.38646
 Alpha virt. eigenvalues --    1.40721   1.40854   1.42897   1.45274   1.45311
 Alpha virt. eigenvalues --    1.47223   1.47838   1.48771   1.49815   1.51867
 Alpha virt. eigenvalues --    1.60281   1.65560   1.66715   1.72018   1.80052
 Alpha virt. eigenvalues --    1.86074   1.93592   1.95816   1.96501   2.01086
 Alpha virt. eigenvalues --    2.03210   2.03816   2.06515   2.07527   2.15584
 Alpha virt. eigenvalues --    2.24205   2.27728   2.36094   2.38532   2.38597
 Alpha virt. eigenvalues --    2.39667   2.40651   2.43045   2.45415   2.47405
 Alpha virt. eigenvalues --    2.48043   2.48137   2.49256   2.54012   2.55798
 Alpha virt. eigenvalues --    2.56123   2.61043   2.62696   2.64894   2.68168
 Alpha virt. eigenvalues --    2.69588   2.71641   2.78740   2.81493   2.82766
 Alpha virt. eigenvalues --    2.95457   2.96763   3.06643   3.08722   3.08896
 Alpha virt. eigenvalues --    3.26810   3.28677   3.30913   3.32083   3.32183
 Alpha virt. eigenvalues --    3.42008   3.47716   3.67377   3.71121   3.89082
 Alpha virt. eigenvalues --    4.08887   4.10085   4.92193  10.00300  10.09934
 Alpha virt. eigenvalues --   10.11144  10.12741  10.13630  23.44690  24.02866
 Alpha virt. eigenvalues --   24.03526  24.18182  24.19884  24.36353  25.98909
 Alpha virt. eigenvalues --   26.03091  26.05879  26.09792  26.14331  26.26114
 Alpha virt. eigenvalues --   26.30614  26.37394  26.39142  26.44326  26.58918
 Alpha virt. eigenvalues --   26.77256  26.80431  26.98346  27.04581 216.09318
 Alpha virt. eigenvalues --  216.20401 216.21671 216.23612 216.24671
          Condensed to atoms (all electrons):
               1          2          3          4          5          6
     1  C   23.722725   2.772308  -3.086293   2.241280  -4.835794 -12.973582
     2  C    2.772308  28.114792   2.780605 -13.458945  -0.882611 -13.437245
     3  C   -3.086293   2.780605  23.731254 -12.989550  -4.840457   2.243096
     4  C    2.241280 -13.458945 -12.989550  34.780418   0.605074  -3.938107
     5  C   -4.835794  -0.882611  -4.840457   0.605074  16.239879   0.588896
     6  C  -12.973582 -13.437245   2.243096  -3.938107   0.588896  34.757718
     7  Cl  -0.026855   0.562777   0.350293  -0.674989   0.710770  -1.560964
     8  Cl  -0.847359  -0.754524  -0.752084   0.343316  -0.020764   1.146508
     9  Cl  -0.752121  -0.752191  -0.845928   1.143037  -0.021183   0.343786
    10  Cl   0.349843   0.561690  -0.027393  -1.555569   0.710700  -0.675787
    11  Cl   0.058635   0.152435   0.058815   0.333848  -1.639950   0.336467
               7          8          9         10         11
     1  C   -0.026855  -0.847359  -0.752121   0.349843   0.058635
     2  C    0.562777  -0.754524  -0.752191   0.561690   0.152435
     3  C    0.350293  -0.752084  -0.845928  -0.027393   0.058815
     4  C   -0.674989   0.343316   1.143037  -1.555569   0.333848
     5  C    0.710770  -0.020764  -0.021183   0.710700  -1.639950
     6  C   -1.560964   1.146508   0.343786  -0.675787   0.336467
     7  Cl  18.031313  -0.496235  -0.005710   0.017386  -0.420279
     8  Cl  -0.496235  18.047742  -0.023301  -0.005728   0.033882
     9  Cl  -0.005710  -0.023301  18.046507  -0.495219   0.033787
    10  Cl   0.017386  -0.005728  -0.495219  18.027604  -0.419575
    11  Cl  -0.420279   0.033882   0.033787  -0.419575  17.974154
 Mulliken charges:
               1
     1  C   -0.622787
     2  C    0.340908
     3  C   -0.622357
     4  C   -0.829813
     5  C   -0.614562
     6  C   -0.830787
     7  Cl   0.512491
     8  Cl   0.328546
     9  Cl   0.328535
    10  Cl   0.512046
    11  Cl   0.497780
 Sum of Mulliken charges =  -1.00000
 Mulliken charges with hydrogens summed into heavy atoms:
               1
     1  C   -0.622787
     2  C    0.340908
     3  C   -0.622357
     4  C   -0.829813
     5  C   -0.614562
     6  C   -0.830787
     7  Cl   0.512491
     8  Cl   0.328546
     9  Cl   0.328535
    10  Cl   0.512046
    11  Cl   0.497780
 APT charges:
               1
     1  C    0.603658
     2  C   -0.787137
     3  C    0.603615
     4  C    0.307913
     5  C    0.137208
     6  C    0.307116
     7  Cl  -0.398672
     8  Cl  -0.542766
     9  Cl  -0.542999
    10  Cl  -0.399401
    11  Cl  -0.288535
 Sum of APT charges =  -1.00000
 APT charges with hydrogens summed into heavy atoms:
               1
     1  C    0.603658
     2  C   -0.787137
     3  C    0.603615
     4  C    0.307913
     5  C    0.137208
     6  C    0.307116
     7  Cl  -0.398672
     8  Cl  -0.542766
     9  Cl  -0.542999
    10  Cl  -0.399401
    11  Cl  -0.288535
 Electronic spatial extent (au):  <R**2>=           3422.6881
 Charge=             -1.0000 electrons
 Dipole moment (field-independent basis, Debye):
    X=             -0.0058    Y=             -5.0092    Z=              0.0000  Tot=              5.0092
 Quadrupole moment (field-independent basis, Debye-Ang):
   XX=           -123.6587   YY=           -125.0940   ZZ=           -101.8616
   XY=              0.0030   XZ=             -0.0000   YZ=              0.0000
 Traceless Quadrupole moment (field-independent basis, Debye-Ang):
   XX=             -6.7872   YY=             -8.2226   ZZ=             15.0098
   XY=              0.0030   XZ=             -0.0000   YZ=              0.0000
 Octapole moment (field-independent basis, Debye-Ang**2):
  XXX=             -0.0581  YYY=            -60.3089  ZZZ=             -0.0000  XYY=             -0.0193
  XXY=            -26.3457  XXZ=             -0.0000  XZZ=             -0.0070  YZZ=             -6.7128
  YYZ=             -0.0000  XYZ=             -0.0000
 Hexadecapole moment (field-independent basis, Debye-Ang**3):
 XXXX=          -2763.2177 YYYY=          -1931.2532 ZZZZ=           -124.2300 XXXY=              0.0096
 XXXZ=             -0.0000 YYYX=             -0.0229 YYYZ=             -0.0000 ZZZX=             -0.0000
 ZZZY=             -0.0000 XXYY=           -788.1402 XXZZ=           -473.5901 YYZZ=           -331.8122
 XXYZ=             -0.0000 YYXZ=             -0.0000 ZZXY=             -0.0017
 N-N= 1.050513111648D+03 E-N=-8.119900463542D+03  KE= 2.523938691598D+03
 Symmetry A'   KE= 2.288058629262D+03
 Symmetry A"   KE= 2.358800623361D+02
  Exact polarizability: 192.715  -0.015 162.712   0.000   0.000  77.709
 Approx polarizability: 229.451  -0.027 200.588   0.000   0.000 101.996
 Calling FoFJK, ICntrl=    100127 FMM=F ISym2X=1 I1Cent= 0 IOpClX= 0 NMat=1 NMatS=1 NMatT=0.
 Full mass-weighted force constant matrix:
 Low frequencies ---  -14.5807  -11.6598   -7.3959   -0.0031   -0.0028   -0.0020
 Low frequencies ---   38.4521   77.5677  138.4582
 Diagonal vibrational polarizability:
       27.8498489       9.6417928       2.9568150
 Harmonic frequencies (cm**-1), IR intensities (KM/Mole), Raman scattering
 activities (A**4/AMU), depolarization ratios for plane and unpolarized
 incident light, reduced masses (AMU), force constants (mDyne/A),
 and normal coordinates:
                      1                      2                      3
                     A"                     A"                     A"
 Frequencies --     38.3176                77.5604               138.4537
 Red. masses --     34.3236                33.1896                15.4714
 Frc consts  --      0.0297                 0.1176                 0.1747
 IR Inten    --      0.0000                 0.1377                 0.3963
  Atom  AN      X      Y      Z        X      Y      Z        X      Y      Z
     1   6    -0.00   0.00  -0.08    -0.00  -0.00   0.10     0.00   0.00   0.38
     2   6    -0.00   0.00  -0.00    -0.00  -0.00   0.21    -0.00   0.00   0.52
     3   6     0.00   0.00   0.08     0.00  -0.00   0.10    -0.00   0.00   0.38
     4   6     0.00   0.00  -0.09     0.00  -0.00   0.00    -0.00   0.00   0.31
     5   6     0.00   0.00  -0.00    -0.00  -0.00   0.12    -0.00   0.00   0.31
     6   6     0.00   0.00   0.09    -0.00  -0.00   0.01     0.00   0.00   0.31
     7  17     0.00  -0.00   0.50    -0.00  -0.00  -0.50     0.00   0.00  -0.06
     8  17    -0.00   0.00  -0.49     0.00   0.00   0.09    -0.00  -0.00  -0.25
     9  17    -0.00   0.00   0.49    -0.00   0.00   0.10     0.00  -0.00  -0.25
    10  17    -0.00  -0.00  -0.49     0.00  -0.00  -0.51    -0.00   0.00  -0.06
    11  17    -0.00   0.00  -0.00     0.00  -0.00   0.63     0.00   0.00  -0.14
                      4                      5                      6
                     A'                     A'                     A'
 Frequencies --    206.1180               217.6221               221.6235
 Red. masses --     30.5957                31.0727                30.7625
 Frc consts  --      0.7658                 0.8670                 0.8902
 IR Inten    --      0.7633                 1.2314                 0.1350
  Atom  AN      X      Y      Z        X      Y      Z        X      Y      Z
     1   6    -0.00  -0.16   0.00    -0.16   0.01  -0.00     0.05  -0.16  -0.00
     2   6     0.00  -0.23   0.00    -0.13  -0.00  -0.00    -0.00  -0.12  -0.00
     3   6     0.00  -0.16   0.00    -0.16  -0.01  -0.00    -0.05  -0.16  -0.00
     4   6     0.04  -0.17   0.00    -0.19   0.03  -0.00    -0.00  -0.16  -0.00
     5   6     0.00  -0.17   0.00    -0.14   0.00  -0.00    -0.00  -0.25  -0.00
     6   6    -0.04  -0.17   0.00    -0.19  -0.03  -0.00     0.00  -0.16   0.00
     7  17    -0.08  -0.16  -0.00    -0.12  -0.25   0.00    -0.37   0.45   0.00
     8  17     0.39   0.44  -0.00     0.03   0.46   0.00     0.10  -0.13  -0.00
     9  17    -0.39   0.45  -0.00     0.03  -0.45   0.00    -0.10  -0.13   0.00
    10  17     0.08  -0.16   0.00    -0.12   0.25   0.00     0.37   0.45  -0.00
    11  17    -0.00  -0.21  -0.00     0.51   0.00   0.00     0.00  -0.29   0.00
                      7                      8                      9
                     A'                     A"                     A'
 Frequencies --    236.0460               263.9509               316.0283
 Red. masses --     34.8731                12.7576                29.8471
 Frc consts  --      1.1448                 0.5237                 1.7563
 IR Inten    --      0.0001                 3.5562                 5.3462
  Atom  AN      X      Y      Z        X      Y      Z        X      Y      Z
     1   6     0.03  -0.02   0.00     0.00  -0.00   0.11     0.12  -0.17  -0.00
     2   6     0.00   0.00   0.00     0.00  -0.00   0.59     0.09   0.00  -0.00
     3   6     0.03   0.03   0.00    -0.00   0.00   0.12     0.12   0.17  -0.00
     4   6    -0.01   0.02   0.00    -0.00  -0.00  -0.38    -0.18   0.16  -0.00
     5   6     0.01   0.00  -0.00    -0.00  -0.00  -0.55    -0.13  -0.00   0.00
     6   6    -0.01  -0.02   0.00    -0.00  -0.00  -0.38    -0.18  -0.16   0.00
     7  17    -0.25   0.44   0.00     0.00  -0.00   0.08    -0.35  -0.22   0.00
     8  17    -0.07  -0.18  -0.00     0.00   0.00  -0.06     0.40  -0.24   0.00
     9  17    -0.07   0.18  -0.00     0.00   0.00  -0.06     0.40   0.23   0.00
    10  17    -0.26  -0.44   0.00    -0.00   0.00   0.08    -0.36   0.22  -0.00
    11  17     0.63   0.00  -0.00     0.00  -0.00   0.11    -0.04  -0.00  -0.00
                     10                     11                     12
                     A'                     A"                     A'
 Frequencies --    320.9362               363.1922               365.9359
 Red. masses --     28.7345                12.4978                32.5269
 Frc consts  --      1.7438                 0.9713                 2.5663
 IR Inten    --      1.0894                 0.0000                 2.7145
  Atom  AN      X      Y      Z        X      Y      Z        X      Y      Z
     1   6     0.18   0.05  -0.00    -0.00  -0.00  -0.44     0.00  -0.06   0.00
     2   6    -0.00   0.34  -0.00    -0.00  -0.00  -0.00     0.00  -0.04   0.00
     3   6    -0.18   0.05  -0.00    -0.00  -0.00   0.44    -0.00  -0.06   0.00
     4   6    -0.19   0.07  -0.00    -0.00  -0.00   0.54     0.11   0.00   0.00
     5   6     0.00  -0.08  -0.00    -0.00  -0.00   0.00    -0.00   0.27  -0.00
     6   6     0.19   0.07  -0.00    -0.00  -0.00  -0.54    -0.11   0.00  -0.00
     7  17     0.39   0.16  -0.00    -0.00   0.00   0.08    -0.26  -0.12   0.00
     8  17     0.38  -0.19   0.00     0.00   0.00   0.07     0.33  -0.22  -0.00
     9  17    -0.38  -0.19   0.00     0.00   0.00  -0.07    -0.33  -0.22  -0.00
    10  17    -0.39   0.16  -0.00    -0.00   0.00  -0.08     0.26  -0.12   0.00
    11  17     0.00  -0.11   0.00     0.00  -0.00  -0.00    -0.00   0.64  -0.00
                     13                     14                     15
                     A'                     A"                     A'
 Frequencies --    516.0876               537.4526               565.5375
 Red. masses --     16.1046                12.0607                13.3702
 Frc consts  --      2.5272                 2.0526                 2.5195
 IR Inten    --      6.9167                 3.9852                41.9987
  Atom  AN      X      Y      Z        X      Y      Z        X      Y      Z
     1   6     0.08   0.34   0.00     0.00   0.00  -0.38     0.35   0.32   0.00
     2   6    -0.00   0.70   0.00     0.00   0.00   0.48     0.54   0.00  -0.00
     3   6    -0.08   0.34   0.00     0.00  -0.00  -0.38     0.35  -0.32   0.00
     4   6    -0.01   0.21   0.00    -0.00  -0.00  -0.21    -0.05  -0.27   0.00
     5   6    -0.00   0.06  -0.00    -0.00  -0.00   0.62    -0.22   0.00  -0.00
     6   6     0.01   0.21  -0.00    -0.00   0.00  -0.21    -0.05   0.27   0.00
     7  17    -0.18  -0.15   0.00    -0.00  -0.00   0.01    -0.06  -0.10  -0.00
     8  17     0.04  -0.05   0.00    -0.00  -0.00   0.02    -0.12  -0.03  -0.00
     9  17    -0.04  -0.05  -0.00    -0.00   0.00   0.02    -0.12   0.03   0.00
    10  17     0.18  -0.15   0.00     0.00   0.00   0.01    -0.06   0.10  -0.00
    11  17    -0.00  -0.25  -0.00     0.00   0.00  -0.04     0.05  -0.00   0.00
                     16                     17                     18
                     A'                     A"                     A"
 Frequencies --    625.1587               633.9844               714.9476
 Red. masses --     14.6073                12.0784                12.0126
 Frc consts  --      3.3636                 2.8603                 3.6177
 IR Inten    --    181.8485                 0.0000                 0.7506
  Atom  AN      X      Y      Z        X      Y      Z        X      Y      Z
     1   6     0.29  -0.21  -0.00     0.00  -0.00  -0.54     0.00   0.00  -0.39
     2   6     0.12   0.00   0.00    -0.00   0.00  -0.00     0.00   0.00   0.33
     3   6     0.29   0.21  -0.00    -0.00   0.00   0.54     0.00  -0.00  -0.39
     4   6     0.35   0.25  -0.00    -0.00   0.00  -0.45    -0.00  -0.00   0.44
     5   6     0.50   0.00  -0.00     0.00  -0.00   0.00    -0.00  -0.00  -0.43
     6   6     0.35  -0.25  -0.00     0.00  -0.00   0.45    -0.00  -0.00   0.44
     7  17    -0.16  -0.05  -0.00     0.00   0.00  -0.02     0.00  -0.00  -0.01
     8  17    -0.13   0.09   0.00    -0.00   0.00   0.03    -0.00   0.00   0.01
     9  17    -0.13  -0.09  -0.00     0.00  -0.00  -0.03     0.00   0.00   0.01
    10  17    -0.16   0.04  -0.00     0.00  -0.00   0.02     0.00   0.00  -0.01
    11  17    -0.06  -0.00   0.00    -0.00   0.00  -0.00     0.00   0.00   0.01
                     19                     20                     21
                     A'                     A'                     A'
 Frequencies --    773.5440               793.8134              1001.3892
 Red. masses --     13.2194                12.8313                12.2396
 Frc consts  --      4.6605                 4.7639                 7.2314
 IR Inten    --    118.6882                 9.1214                41.1750
  Atom  AN      X      Y      Z        X      Y      Z        X      Y      Z
     1   6     0.32  -0.17   0.00    -0.33   0.31  -0.00     0.17  -0.20  -0.00
     2   6    -0.00   0.50  -0.00    -0.10  -0.00   0.00    -0.00   0.29   0.00
     3   6    -0.32  -0.17  -0.00    -0.33  -0.31   0.00    -0.17  -0.20   0.00
     4   6    -0.18  -0.28   0.00     0.37  -0.29  -0.00     0.47  -0.21  -0.00
     5   6     0.00  -0.46   0.00     0.33   0.00  -0.00    -0.00   0.49   0.00
     6   6     0.19  -0.28  -0.00     0.37   0.29   0.00    -0.47  -0.21  -0.00
     7  17    -0.02  -0.01   0.00    -0.11  -0.05   0.00     0.05   0.03   0.00
     8  17    -0.07   0.06   0.00     0.05  -0.03  -0.00    -0.01   0.01  -0.00
     9  17     0.07   0.06   0.00     0.05   0.03  -0.00     0.01   0.01  -0.00
    10  17     0.02  -0.01  -0.00    -0.11   0.05   0.00    -0.05   0.03   0.00
    11  17    -0.00   0.19  -0.00     0.00  -0.00   0.00     0.00  -0.06  -0.00
                     22                     23                     24
                     A'                     A'                     A'
 Frequencies --   1118.0653              1288.6815              1318.2247
 Red. masses --     12.1550                12.0085                12.0324
 Frc consts  --      8.9524                11.7498                12.3191
 IR Inten    --      0.8614                 3.1338               550.2885
  Atom  AN      X      Y      Z        X      Y      Z        X      Y      Z
     1   6     0.56  -0.05   0.00    -0.05  -0.44  -0.00    -0.26   0.14   0.00
     2   6     0.00  -0.36  -0.00     0.18  -0.00  -0.00     0.58   0.00  -0.00
     3   6    -0.56  -0.05  -0.00    -0.05   0.44  -0.00    -0.26  -0.14  -0.00
     4   6    -0.16   0.22   0.00    -0.15  -0.47   0.00    -0.27   0.24   0.00
     5   6     0.00   0.27  -0.00     0.30  -0.00  -0.00     0.46   0.00  -0.00
     6   6     0.16   0.22   0.00    -0.16   0.47   0.00    -0.27  -0.24   0.00
     7  17    -0.03  -0.03  -0.00    -0.00  -0.01  -0.00     0.02   0.02  -0.00
     8  17    -0.02   0.01  -0.00    -0.01   0.01   0.00    -0.01  -0.01  -0.00
     9  17     0.02   0.01   0.00    -0.01  -0.01  -0.00    -0.01   0.01   0.00
    10  17     0.03  -0.03  -0.00    -0.00   0.01   0.00     0.02  -0.02  -0.00
    11  17    -0.00  -0.05   0.00     0.00   0.00   0.00    -0.01  -0.00   0.00
                     25                     26                     27
                     A'                     A'                     A'
 Frequencies --   1331.3808              1542.7769              1574.5949
 Red. masses --     12.0960                12.0048                12.0104
 Frc consts  --     12.6327                16.8350                17.5447
 IR Inten    --     62.2765                13.1671                63.6753
  Atom  AN      X      Y      Z        X      Y      Z        X      Y      Z
     1   6    -0.21  -0.32  -0.00    -0.06  -0.42   0.00     0.27   0.23  -0.00
     2   6    -0.00   0.23   0.00    -0.00   0.16   0.00    -0.52  -0.00   0.00
     3   6     0.21  -0.32   0.00     0.06  -0.42  -0.00     0.27  -0.22   0.00
     4   6    -0.42  -0.03  -0.00     0.17   0.48   0.00    -0.31  -0.07  -0.00
     5   6    -0.00   0.54   0.00     0.00  -0.30   0.00     0.53   0.00   0.00
     6   6     0.43  -0.02   0.00    -0.17   0.48  -0.00    -0.31   0.06   0.00
     7  17    -0.03  -0.01   0.00     0.00  -0.01   0.00     0.00  -0.00   0.00
     8  17    -0.01   0.01   0.00    -0.00   0.00  -0.00     0.01  -0.01  -0.00
     9  17     0.01   0.01  -0.00     0.00   0.00   0.00     0.01   0.01  -0.00
    10  17     0.03  -0.00   0.00    -0.00  -0.01   0.00     0.00   0.00   0.00
    11  17     0.00  -0.05  -0.00    -0.00   0.01  -0.00    -0.01  -0.00  -0.00

 -------------------
 - Thermochemistry -
 -------------------
 Temperature   298.150 Kelvin.  Pressure   1.00000 Atm.
 Atom     1 has atomic number  6 and mass  12.00000
 Atom     2 has atomic number  6 and mass  12.00000
 Atom     3 has atomic number  6 and mass  12.00000
 Atom     4 has atomic number  6 and mass  12.00000
 Atom     5 has atomic number  6 and mass  12.00000
 Atom     6 has atomic number  6 and mass  12.00000
 Atom     7 has atomic number 17 and mass  34.96885
 Atom     8 has atomic number 17 and mass  34.96885
 Atom     9 has atomic number 17 and mass  34.96885
 Atom    10 has atomic number 17 and mass  34.96885
 Atom    11 has atomic number 17 and mass  34.96885
 Molecular mass:   246.84426 amu.
 Principal axes and moments of inertia in atomic units:
                           1         2         3
     Eigenvalues --  2549.106093939.496646488.60273
           X            1.00000  -0.00004   0.00000
           Y            0.00004   1.00000   0.00000
           Z            0.00000  -0.00000   1.00000
 This molecule is an asymmetric top.
 Rotational symmetry number  1.
 Warning -- assumption of classical behavior for rotation
           may cause significant error
 Rotational temperatures (Kelvin)      0.03398     0.02199     0.01335
 Rotational constants (GHZ):           0.70799     0.45811     0.27814
 Zero-point vibrational energy     102289.2 (Joules/Mol)
                                   24.44771 (Kcal/Mol)
 Warning -- explicit consideration of  15 degrees of freedom as
           vibrations may cause significant error
 Vibrational temperatures:     55.13   111.59   199.20   296.56   313.11
          (Kelvin)            318.87   339.62   379.77   454.69   461.76
                              522.55   526.50   742.54   773.27   813.68
                              899.46   912.16  1028.65  1112.96  1142.12
                             1440.78  1608.65  1854.13  1896.63  1915.56
                             2219.71  2265.49
 
 Zero-point correction=                           0.038960 (Hartree/Particle)
 Thermal correction to Energy=                    0.049418
 Thermal correction to Enthalpy=                  0.050362
 Thermal correction to Gibbs Free Energy=         0.000534
 Sum of electronic and zero-point Energies=          -2529.563754
 Sum of electronic and thermal Energies=             -2529.553295
 Sum of electronic and thermal Enthalpies=           -2529.552351
 Sum of electronic and thermal Free Energies=        -2529.602179
 
                     E (Thermal)             CV                S
                      KCal/Mol        Cal/Mol-Kelvin    Cal/Mol-Kelvin
 Total                   31.010             35.940            104.872
 Electronic               0.000              0.000              0.000
 Translational            0.889              2.981             42.411
 Rotational               0.889              2.981             32.544
 Vibrational             29.233             29.979             29.917
 Vibration     1          0.594              1.982              5.344
 Vibration     2          0.599              1.964              3.952
 Vibration     3          0.614              1.915              2.825
 Vibration     4          0.641              1.831              2.078
 Vibration     5          0.646              1.814              1.979
 Vibration     6          0.648              1.808              1.946
 Vibration     7          0.655              1.786              1.832
 Vibration     8          0.671              1.739              1.635
 Vibration     9          0.703              1.643              1.331
 Vibration    10          0.706              1.633              1.305
 Vibration    11          0.737              1.548              1.108
 Vibration    12          0.739              1.542              1.097
 Vibration    13          0.871              1.214              0.619
 Vibration    14          0.892              1.167              0.571
 Vibration    15          0.921              1.106              0.513
                       Q            Log10(Q)             Ln(Q)
 Total Bot       0.567781D+00         -0.245819         -0.566019
 Total V=0       0.472585D+18         17.674480         40.696994
 Vib (Bot)       0.128901D-14        -14.889743        -34.284900
 Vib (Bot)    1  0.540038D+01          0.732424          1.686469
 Vib (Bot)    2  0.265625D+01          0.424270          0.976917
 Vib (Bot)    3  0.146923D+01          0.167089          0.384736
 Vib (Bot)    4  0.965090D+00         -0.015432         -0.035534
 Vib (Bot)    5  0.909833D+00         -0.041039         -0.094495
 Vib (Bot)    6  0.891911D+00         -0.049678         -0.114389
 Vib (Bot)    7  0.832174D+00         -0.079786         -0.183713
 Vib (Bot)    8  0.734423D+00         -0.134053         -0.308669
 Vib (Bot)    9  0.596233D+00         -0.224584         -0.517124
 Vib (Bot)   10  0.585403D+00         -0.232545         -0.535455
 Vib (Bot)   11  0.503589D+00         -0.297924         -0.685995
 Vib (Bot)   12  0.498891D+00         -0.301995         -0.695369
 Vib (Bot)   13  0.313884D+00         -0.503230         -1.158731
 Vib (Bot)   14  0.295498D+00         -0.529446         -1.219094
 Vib (Bot)   15  0.273338D+00         -0.563300         -1.297046
 Vib (V=0)       0.107289D+04          3.030556          6.978113
 Vib (V=0)    1  0.592347D+01          0.772576          1.778923
 Vib (V=0)    2  0.320290D+01          0.505544          1.164057
 Vib (V=0)    3  0.205197D+01          0.312172          0.718803
 Vib (V=0)    4  0.158692D+01          0.200556          0.461796
 Vib (V=0)    5  0.153817D+01          0.187004          0.430593
 Vib (V=0)    6  0.152250D+01          0.182557          0.420354
 Vib (V=0)    7  0.147083D+01          0.167563          0.385828
 Vib (V=0)    8  0.138847D+01          0.142536          0.328202
 Vib (V=0)    9  0.127813D+01          0.106577          0.245402
 Vib (V=0)   10  0.126987D+01          0.103759          0.238913
 Vib (V=0)   11  0.120965D+01          0.082659          0.190330
 Vib (V=0)   12  0.120632D+01          0.081464          0.187577
 Vib (V=0)   13  0.109036D+01          0.037569          0.086507
 Vib (V=0)   14  0.108079D+01          0.033742          0.077694
 Vib (V=0)   15  0.106984D+01          0.029317          0.067506
 Electronic      0.100000D+01          0.000000          0.000000
 Translational   0.152436D+09          8.183088         18.842257
 Rotational      0.288959D+07          6.460836         14.876624
 ***** Axes restored to original set *****
 -------------------------------------------------------------------
 Center     Atomic                   Forces (Hartrees/Bohr)
 Number     Number              X              Y              Z
 -------------------------------------------------------------------
      1        6          -0.000116405   -0.000006229   -0.000000000
      2        6           0.000033893   -0.000005498    0.000000000
      3        6          -0.000002685   -0.000040901   -0.000000000
      4        6          -0.000402635   -0.000234711   -0.000000000
      5        6           0.000345231   -0.000143712    0.000000000
      6        6          -0.000005657   -0.000031567   -0.000000000
      7       17          -0.000005347   -0.000000182   -0.000000000
      8       17           0.000078254    0.000031529    0.000000000
      9       17           0.000001612    0.000031169    0.000000000
     10       17           0.000383464    0.000223753    0.000000000
     11       17          -0.000309725    0.000176348   -0.000000000
 -------------------------------------------------------------------
 Cartesian Forces:  Max     0.000402635 RMS     0.000146347
 FormGI is forming the generalized inverse of G from B-inverse, IUseBI=4.

 GradGradGradGradGradGradGradGradGradGradGradGradGradGradGradGradGradGrad
 Berny optimization.
 Internal  Forces:  Max     0.000443920 RMS     0.000084615
 Search for a local minimum.
 Step number   1 out of a maximum of    2
 All quantities printed in internal units (Hartrees-Bohrs-Radians)
 Second derivative matrix not updated -- analytic derivatives used.
 ITU=  0
     Eigenvalues ---    0.00521   0.01439   0.02133   0.02595   0.02791
     Eigenvalues ---    0.03017   0.03843   0.04480   0.11710   0.12486
     Eigenvalues ---    0.15335   0.16042   0.17308   0.19000   0.21697
     Eigenvalues ---    0.21772   0.23201   0.26185   0.28385   0.28903
     Eigenvalues ---    0.31032   0.42959   0.45786   0.49132   0.51226
     Eigenvalues ---    0.52096   0.52193
 Angle between quadratic step and forces=  17.95 degrees.
 Linear search not attempted -- first point.
 Iteration  1 RMS(Cart)=  0.00032076 RMS(Int)=  0.00000002
 Iteration  2 RMS(Cart)=  0.00000003 RMS(Int)=  0.00000001
 ClnCor:  largest displacement from symmetrization is 1.50D-13 for atom    11.
 Variable       Old X    -DE/DX   Delta X   Delta X   Delta X     New X
                                 (Linear)    (Quad)   (Total)
    R1        2.59399   0.00001   0.00000  -0.00003  -0.00003   2.59396
    R2        2.63784  -0.00002   0.00000  -0.00009  -0.00009   2.63774
    R3        3.39361   0.00008   0.00000   0.00055   0.00055   3.39416
    R4        2.59389   0.00002   0.00000   0.00007   0.00007   2.59396
    R5        2.63754   0.00001   0.00000   0.00021   0.00021   2.63774
    R6        3.39428  -0.00003   0.00000  -0.00012  -0.00012   3.39416
    R7        2.64212   0.00001   0.00000   0.00007   0.00007   2.64219
    R8        3.30779  -0.00044   0.00000  -0.00223  -0.00223   3.30556
    R9        2.64237  -0.00003   0.00000  -0.00018  -0.00018   2.64219
   R10        3.28731   0.00036   0.00000   0.00160   0.00160   3.28891
   R11        3.30563  -0.00000   0.00000  -0.00005  -0.00005   3.30557
    A1        2.17954   0.00001   0.00000   0.00012   0.00012   2.17966
    A2        2.06763  -0.00003   0.00000  -0.00012  -0.00012   2.06750
    A3        2.03602   0.00002   0.00000   0.00000   0.00000   2.03602
    A4        1.99925  -0.00001   0.00000  -0.00011  -0.00011   1.99914
    A5        2.17944  -0.00001   0.00000   0.00023   0.00023   2.17966
    A6        2.06759   0.00000   0.00000  -0.00008  -0.00008   2.06751
    A7        2.03616   0.00000   0.00000  -0.00014  -0.00014   2.03602
    A8        2.06238  -0.00001   0.00000  -0.00049  -0.00049   2.06189
    A9        2.14036   0.00001   0.00000   0.00021   0.00021   2.14057
   A10        2.08044  -0.00001   0.00000   0.00028   0.00028   2.08072
   A11        2.08369   0.00001   0.00000   0.00044   0.00044   2.08413
   A12        2.09981  -0.00001   0.00000  -0.00028  -0.00028   2.09953
   A13        2.09969  -0.00000   0.00000  -0.00016  -0.00016   2.09953
   A14        2.06207   0.00000   0.00000  -0.00018  -0.00018   2.06189
   A15        2.14049   0.00001   0.00000   0.00009   0.00009   2.14058
   A16        2.08062  -0.00001   0.00000   0.00010   0.00010   2.08072
    D1        0.00000  -0.00000   0.00000   0.00000   0.00000   0.00000
    D2        3.14159  -0.00000   0.00000   0.00000   0.00000   3.14159
    D3        0.00000   0.00000   0.00000  -0.00000   0.00000   0.00000
    D4        3.14159  -0.00000   0.00000  -0.00000   0.00000   3.14159
    D5        3.14159   0.00000   0.00000  -0.00000   0.00000   3.14159
    D6       -0.00000   0.00000   0.00000  -0.00000   0.00000   0.00000
    D7       -0.00000   0.00000   0.00000   0.00000   0.00000   0.00000
    D8        3.14159   0.00000   0.00000   0.00000   0.00000   3.14159
    D9       -0.00000   0.00000   0.00000  -0.00000   0.00000   0.00000
   D10        3.14159   0.00000   0.00000  -0.00000   0.00000   3.14159
   D11        3.14159  -0.00000   0.00000  -0.00000   0.00000   3.14159
   D12        0.00000  -0.00000   0.00000  -0.00000   0.00000   0.00000
   D13        0.00000   0.00000   0.00000   0.00000   0.00000   0.00000
   D14        3.14159   0.00000   0.00000   0.00000   0.00000   3.14159
   D15        3.14159  -0.00000   0.00000   0.00000   0.00000   3.14159
   D16       -0.00000   0.00000   0.00000   0.00000   0.00000   0.00000
   D17       -0.00000  -0.00000   0.00000   0.00000   0.00000   0.00000
   D18        3.14159   0.00000   0.00000   0.00000   0.00000   3.14159
   D19        3.14159  -0.00000   0.00000  -0.00000   0.00000   3.14159
   D20        0.00000  -0.00000   0.00000  -0.00000  -0.00000   0.00000
         Item               Value     Threshold  Converged?
 Maximum Force            0.000444     0.000450     YES
 RMS     Force            0.000085     0.000300     YES
 Maximum Displacement     0.001376     0.001800     YES
 RMS     Displacement     0.000321     0.001200     YES
 Predicted change in Energy=-8.180935D-07
 Optimization completed.
    -- Stationary point found.
                           ----------------------------
                           !   Optimized Parameters   !
                           ! (Angstroms and Degrees)  !
 --------------------------                            --------------------------
 ! Name  Definition              Value          Derivative Info.                !
 --------------------------------------------------------------------------------
 ! R1    R(1,2)                  1.3727         -DE/DX =    0.0                 !
 ! R2    R(1,6)                  1.3959         -DE/DX =    0.0                 !
 ! R3    R(1,8)                  1.7958         -DE/DX =    0.0001              !
 ! R4    R(2,3)                  1.3726         -DE/DX =    0.0                 !
 ! R5    R(3,4)                  1.3957         -DE/DX =    0.0                 !
 ! R6    R(3,9)                  1.7962         -DE/DX =    0.0                 !
 ! R7    R(4,5)                  1.3981         -DE/DX =    0.0                 !
 ! R8    R(4,10)                 1.7504         -DE/DX =   -0.0004              !
 ! R9    R(5,6)                  1.3983         -DE/DX =    0.0                 !
 ! R10   R(5,11)                 1.7396         -DE/DX =    0.0004              !
 ! R11   R(6,7)                  1.7493         -DE/DX =    0.0                 !
 ! A1    A(2,1,6)              124.8784         -DE/DX =    0.0                 !
 ! A2    A(2,1,8)              118.4662         -DE/DX =    0.0                 !
 ! A3    A(6,1,8)              116.6553         -DE/DX =    0.0                 !
 ! A4    A(1,2,3)              114.5486         -DE/DX =    0.0                 !
 ! A5    A(2,3,4)              124.8726         -DE/DX =    0.0                 !
 ! A6    A(2,3,9)              118.4641         -DE/DX =    0.0                 !
 ! A7    A(4,3,9)              116.6633         -DE/DX =    0.0                 !
 ! A8    A(3,4,5)              118.1657         -DE/DX =    0.0                 !
 ! A9    A(3,4,10)             122.6338         -DE/DX =    0.0                 !
 ! A10   A(5,4,10)             119.2005         -DE/DX =    0.0                 !
 ! A11   A(4,5,6)              119.3865         -DE/DX =    0.0                 !
 ! A12   A(4,5,11)             120.3101         -DE/DX =    0.0                 !
 ! A13   A(6,5,11)             120.3034         -DE/DX =    0.0                 !
 ! A14   A(1,6,5)              118.1482         -DE/DX =    0.0                 !
 ! A15   A(1,6,7)              122.6412         -DE/DX =    0.0                 !
 ! A16   A(5,6,7)              119.2107         -DE/DX =    0.0                 !
 ! D1    D(6,1,2,3)              0.0            -DE/DX =    0.0                 !
 ! D2    D(8,1,2,3)            180.0            -DE/DX =    0.0                 !
 ! D3    D(2,1,6,5)              0.0            -DE/DX =    0.0                 !
 ! D4    D(2,1,6,7)            180.0            -DE/DX =    0.0                 !
 ! D5    D(8,1,6,5)            180.0            -DE/DX =    0.0                 !
 ! D6    D(8,1,6,7)              0.0            -DE/DX =    0.0                 !
 ! D7    D(1,2,3,4)              0.0            -DE/DX =    0.0                 !
 ! D8    D(1,2,3,9)            180.0            -DE/DX =    0.0                 !
 ! D9    D(2,3,4,5)              0.0            -DE/DX =    0.0                 !
 ! D10   D(2,3,4,10)           180.0            -DE/DX =    0.0                 !
 ! D11   D(9,3,4,5)            180.0            -DE/DX =    0.0                 !
 ! D12   D(9,3,4,10)             0.0            -DE/DX =    0.0                 !
 ! D13   D(3,4,5,6)              0.0            -DE/DX =    0.0                 !
 ! D14   D(3,4,5,11)           180.0            -DE/DX =    0.0                 !
 ! D15   D(10,4,5,6)           180.0            -DE/DX =    0.0                 !
 ! D16   D(10,4,5,11)            0.0            -DE/DX =    0.0                 !
 ! D17   D(4,5,6,1)              0.0            -DE/DX =    0.0                 !
 ! D18   D(4,5,6,7)            180.0            -DE/DX =    0.0                 !
 ! D19   D(11,5,6,1)           180.0            -DE/DX =    0.0                 !
 ! D20   D(11,5,6,7)             0.0            -DE/DX =    0.0                 !
 --------------------------------------------------------------------------------
 GradGradGradGradGradGradGradGradGradGradGradGradGradGradGradGradGradGrad


 ----------------------------------------------------------------------

 Electric dipole moment (input orientation):
 (Debye = 10**-18 statcoulomb cm , SI units = C m)
                  (au)            (Debye)         (10**-30 SI)
   Tot        0.197078D+01      0.500922D+01      0.167090D+02
   x         -0.170454D+01     -0.433250D+01     -0.144517D+02
   y          0.989207D+00      0.251431D+01      0.838684D+01
   z          0.000000D+00      0.000000D+00      0.000000D+00

 Dipole polarizability, Alpha (input orientation).
 (esu units = cm**3 , SI units = C**2 m**2 J**-1)
 Alpha(0;0):
               (au)            (10**-24 esu)      (10**-40 SI)
   iso        0.144379D+03      0.213947D+02      0.238048D+02
   aniso      0.103324D+03      0.153111D+02      0.170359D+02
   xx         0.170253D+03      0.252290D+02      0.280710D+02
   yx         0.130150D+02      0.192862D+01      0.214588D+01
   yy         0.185173D+03      0.274398D+02      0.305309D+02
   zx         0.000000D+00      0.000000D+00      0.000000D+00
   zy         0.000000D+00      0.000000D+00      0.000000D+00
   zz         0.777093D+02      0.115153D+02      0.128125D+02

 ----------------------------------------------------------------------

 Dipole orientation:
     6          1.09637013          1.88919461         -1.43053478
     6          0.00192531          0.00331757         -2.83567632
     6         -1.09427744         -1.88558862         -1.43616266
     6         -1.14556248         -1.97395971          1.19939578
     6         -0.00155242         -0.00267503          2.53583317
     6          1.14441486          1.97198220          1.20556301
    17          2.57313623          4.43386313          2.88635917
    17          2.58998200          4.46289068         -3.06203697
    17         -2.58605555         -4.45612487         -3.07569846
    17         -2.57739540         -4.44120226          2.87393224
    17         -0.00373278         -0.00643208          5.82314498

 Electric dipole moment (dipole orientation):
 (Debye = 10**-18 statcoulomb cm , SI units = C m)
                  (au)            (Debye)         (10**-30 SI)
   Tot        0.197078D+01      0.500922D+01      0.167090D+02
   x          0.000000D+00      0.000000D+00      0.000000D+00
   y          0.000000D+00      0.000000D+00      0.000000D+00
   z          0.197078D+01      0.500922D+01      0.167090D+02

 Dipole polarizability, Alpha (dipole orientation).
 (esu units = cm**3 , SI units = C**2 m**2 J**-1)
 Alpha(0;0):
               (au)            (10**-24 esu)      (10**-40 SI)
   iso        0.144379D+03      0.213947D+02      0.238048D+02
   aniso      0.103324D+03      0.153111D+02      0.170359D+02
   xx         0.106684D+03      0.158089D+02      0.175898D+02
   yx         0.499270D+02      0.739841D+01      0.823184D+01
   yy         0.163740D+03      0.242638D+02      0.269971D+02
   zx         0.100806D-01      0.149378D-02      0.166206D-02
   zy         0.173702D-01      0.257399D-02      0.286395D-02
   zz         0.162712D+03      0.241114D+02      0.268276D+02

 ----------------------------------------------------------------------
 1\1\GINC-SH02-01N49\Freq\RM062X\6-311++G(d,p)\C6Cl5(1-)\JLAPIER\03-Apr
 -2026\0\\#N Geom=AllCheck Guess=TCheck SCRF=Check GenChk RM062X/6-311+
 +G(d,p) Freq\\1,2,4,5 Tetrachlorobenzene anion radical\\-1,1\C,1.23491
 23667,0.619749681,0.\C,1.2988732157,-0.7514377462,0.\C,0.0782474064,-1
 .3792744224,0.\C,-1.1551543411,-0.7259990276,0.\C,-1.1614413435,0.6721
 354344,0.\C,0.0538268131,1.3637416053,0.\Cl,0.0405937491,3.1129546919,
 0.\Cl,2.7720163386,1.5483423147,0.\Cl,0.0392279173,-3.17502613,0.\Cl,-
 2.6792625601,-1.5868284116,0.\Cl,-2.6671575621,1.5433010105,0.\\Versio
 n=ES64L-G16RevB.01\State=1-A'\HF=-2529.6027136\RMSD=6.174e-09\RMSF=1.4
 63e-04\ZeroPoint=0.0389599\Thermal=0.0494182\Dipole=-1.7045373,0.98920
 66,0.\DipoleDeriv=1.0491735,0.7007929,0.,0.9949811,0.7577919,0.,0.,0.,
 0.0040079,-0.7613156,-0.404326,0.,-0.402686,-1.2234193,0.,0.,0.,-0.376
 6776,0.0975736,0.448667,0.,0.1532768,1.7091224,0.,0.,0.,0.0041497,0.79
 91487,0.5028462,0.,0.4509119,0.1076832,0.,0.,0.,0.0169078,0.4782295,-0
 .4418956,0.,-0.4412096,-0.0291538,0.,0.,0.,-0.0374519,-0.1331296,-0.08
 38756,0.,-0.0323586,1.0375235,0.,0.,0.,0.0169544,-0.0577051,0.057323,0
 .,0.0261132,-1.0475547,0.,0.,0.,-0.0907559,-0.9246033,-0.6275313,0.,-0
 .4897233,-0.5146252,0.,0.,0.,-0.1890686,-0.1338613,-0.0350591,0.,-0.17
 32901,-1.3059122,0.,0.,0.,-0.1892242,-0.8389962,-0.4224698,0.,-0.39145
 12,-0.2680586,0.,0.,0.,-0.0911495,-0.5745143,0.3055283,0.,0.305436,-0.
 2233971,0.,0.,0.,-0.0676921\Polar=170.253481,13.0149862,185.1732488,0.
 ,0.,77.709259\Quadrupole=-5.8474353,-5.3119891,11.1594244,0.4615599,0.
 ,0.\PG=CS [SG(C6Cl5)]\NImag=0\\0.47966871,-0.08625025,0.54489018,0.,0.
 ,0.12147677,-0.07996857,-0.00272839,0.,0.37506280,0.01887801,-0.312694
 37,0.,0.15154203,0.54920698,0.,0.,-0.05028230,0.,0.,0.06712106,0.01921
 671,-0.04926116,0.,-0.26193223,-0.10732102,0.,0.60346938,-0.04182831,-
 0.03310778,0.,-0.08568019,-0.13082099,0.,-0.01543755,0.42109700,0.,0.,
 -0.00868307,0.,0.,-0.05027804,0.,0.,0.12146706,-0.02599502,0.02447690,
 0.,-0.04488311,-0.03867903,0.,-0.25075521,0.13511775,0.,0.52211672,0.0
 3892157,-0.05543822,0.,0.02303739,0.06063884,0.,0.05587878,-0.13555419
 ,0.,-0.04949888,0.59641554,0.,0.,-0.00012235,0.,0.,0.01476955,0.,0.,-0
 .06115862,0.,0.,0.10997095,-0.06008065,0.03904866,0.,-0.01695781,-0.03
 356724,0.,0.03253094,0.01867187,0.,-0.09114029,0.03882054,0.,0.5570499
 1,-0.03456639,0.06573560,0.,-0.03358095,-0.05557145,0.,0.09231171,-0.0
 2689786,0.,-0.03950045,-0.31434134,0.,0.03974094,0.60321039,0.,0.,0.00
 752234,0.,0.,-0.00240667,0.,0.,0.00752236,0.,0.,-0.05484180,0.,0.,0.10
 381544,-0.24640423,0.05804527,0.,0.04116246,0.07250298,0.,-0.07551107,
 0.01046083,0.,0.03344850,-0.08692509,0.,-0.25832780,-0.05729542,0.,0.6
 2014598,0.13728092,-0.13964036,0.,0.01084773,-0.02546086,0.,-0.0039798
 8,-0.00587366,0.,-0.01907807,-0.02749312,0.,-0.13563654,-0.14687522,0.
 ,0.00719765,0.49900601,0.,0.,-0.06119853,0.,0.,0.01476887,0.,0.,-0.000
 11866,0.,0.,0.00296046,0.,0.,-0.05488229,0.,0.,0.10996356,0.00325084,0
 .01976516,0.,-0.00236061,0.00204804,0.,-0.00089889,-0.00155110,0.,-0.0
 0294428,0.00065127,0.,-0.00025880,-0.02170929,0.,-0.03806149,-0.000297
 50,0.,0.05496597,-0.00691225,-0.03822978,0.,0.00922319,-0.00185575,0.,
 -0.00015689,0.00438089,0.,-0.00062106,0.00042941,0.,0.00150258,-0.0347
 1072,0.,-0.00382129,-0.14889894,0.,0.00245157,0.22308796,0.,0.,0.00256
 867,0.,0.,0.00304621,0.,0.,0.00071512,0.,0.,0.00468623,0.,0.,0.0021125
 9,0.,0.,-0.02015013,0.,0.,0.00845275,-0.09250074,0.00075901,0.,0.00152
 259,-0.04385260,0.,-0.00148321,0.00431519,0.,0.00027136,0.00038316,0.,
 -0.00058215,0.00358833,0.,-0.04229424,-0.02032871,0.,-0.00754227,0.001
 86981,0.,0.14745920,-0.03097953,-0.02790394,0.,-0.02453375,-0.04678843
 ,0.,-0.00489940,0.00039732,0.,0.00033632,0.00027722,0.,0.00022898,-0.0
 0103690,0.,-0.00053860,-0.00282868,0.,0.00870542,0.00049440,0.,0.05429
 476,0.07718898,0.,0.,-0.02227259,0.,0.,0.00017014,0.,0.,0.00734625,0.,
 0.,-0.00104583,0.,0.,0.00358755,0.,0.,0.00303309,0.,0.,0.00017875,0.,0
 .,0.00946956,0.00018368,-0.00393833,0.,-0.00524325,-0.02841247,0.,-0.0
 3088994,0.00445650,0.,-0.00360890,0.02168213,0.,-0.00257031,-0.0009156
 1,0.,-0.00003331,0.00015708,0.,0.00038113,-0.00066861,0.,0.00020094,0.
 00008148,0.,0.04771295,0.00529228,-0.00126890,0.,-0.04779005,-0.040009
 83,0.,0.03620468,-0.08920410,0.,0.00190907,-0.04149309,0.,0.00244496,0
 .00095502,0.,0.00019960,0.00057891,0.,0.00073952,-0.00351938,0.,-0.000
 34151,0.00005140,0.,-0.00303850,0.17658403,0.,0.,0.00734725,0.,0.,0.00
 016933,0.,0.,-0.02229754,0.,0.,0.00302553,0.,0.,0.00358739,0.,0.,-0.00
 104924,0.,0.,-0.00128609,0.,0.,0.00049482,0.,0.,0.00950359,0.00381592,
 0.00256483,0.,-0.00687735,0.00665304,0.,-0.03343192,-0.02803013,0.,-0.
 11870416,-0.05016382,0.,-0.01741732,-0.00834295,0.,-0.00040975,0.00082
 764,0.,0.00025578,-0.00084338,0.,-0.00258105,-0.00237359,0.,-0.0060708
 1,0.00271813,0.,0.17827810,0.00116056,-0.00031714,0.,-0.00054632,0.002
 64133,0.,-0.00136090,-0.00151965,0.,-0.04662790,-0.06711671,0.,-0.0315
 2721,-0.01750833,0.,0.00210399,-0.00208766,0.,-0.00104120,-0.00082764,
 0.,-0.00096488,-0.00055886,0.,0.00953575,-0.00097479,0.,0.07331844,0.0
 9855470,0.,0.,0.00071406,0.,0.,0.00304638,0.,0.,0.00255490,0.,0.,-0.02
 022641,0.,0.,0.00209820,0.,0.,0.00468495,0.,0.,0.00046018,0.,0.,-0.001
 28625,0.,0.,0.00018001,0.,0.,0.00855686,-0.00118665,-0.00248171,0.,0.0
 0047508,0.00020826,0.,-0.00031456,-0.00049487,0.,-0.01780561,0.0072129
 5,0.,-0.14224574,0.06027010,0.,-0.03371505,0.02300970,0.,-0.00678740,-
 0.00202368,0.,-0.00247044,-0.00032207,0.,-0.00006218,0.00166181,0.,0.0
 0314255,-0.00405032,0.,0.20097000,-0.00099660,-0.00202530,0.,0.0002093
 2,0.00071452,0.,-0.00197836,-0.00289700,0.,0.03216534,-0.01632435,0.,0
 .06027246,-0.07295920,0.,-0.00192990,-0.00042643,0.,-0.00976188,-0.000
 35046,0.,0.00027742,0.00070750,0.,0.00106057,-0.00169926,0.,0.00367179
 ,-0.01028525,0.,-0.08299017,0.10554525,0.,0.,0.00292974,0.,0.,-0.00012
 453,0.,0.,0.00293023,0.,0.,0.00198228,0.,0.,-0.01811513,0.,0.,0.001987
 92,0.,0.,-0.00078430,0.,0.,0.00032451,0.,0.,0.00032494,0.,0.,-0.000782
 89,0.,0.,0.00932723\\0.00011641,0.00000623,0.,-0.00003389,0.00000550,0
 .,0.00000268,0.00004090,0.,0.00040263,0.00023471,0.,-0.00034523,0.0001
 4371,0.,0.00000566,0.00003157,0.,0.00000535,0.00000018,0.,-0.00007825,
 -0.00003153,0.,-0.00000161,-0.00003117,0.,-0.00038346,-0.00022375,0.,0
 .00030973,-0.00017635,0.\\\@


 FESTINA LENTE!
     - IMPERATOR AUGUSTUS 
 Job cpu time:       0 days  0 hours 30 minutes 27.0 seconds.
 Elapsed time:       0 days  0 hours  7 minutes 38.4 seconds.
 File lengths (MBytes):  RWF=    156 Int=      0 D2E=      0 Chk=      9 Scr=      1
 Normal termination of Gaussian 16 at Fri Apr  3 12:44:17 2026.
