 Entering Gaussian System, Link 0=g16
 Initial command:
 /share/software/user/restricted/gaussian/g16.B01/l1.exe "/home/users/jlapier/Chloroaromatics/Gau-17473.inp" -scrdir="/home/users/jlapier/Chloroaromatics/"
 Entering Link 1 = /share/software/user/restricted/gaussian/g16.B01/l1.exe PID=     17474.
  
 Copyright (c) 1988-2017, Gaussian, Inc.  All Rights Reserved.
  
 This is part of the Gaussian(R) 16 program.  It is based on
 the Gaussian(R) 09 system (copyright 2009, Gaussian, Inc.),
 the Gaussian(R) 03 system (copyright 2003, Gaussian, Inc.),
 the Gaussian(R) 98 system (copyright 1998, Gaussian, Inc.),
 the Gaussian(R) 94 system (copyright 1995, Gaussian, Inc.),
 the Gaussian 92(TM) system (copyright 1992, Gaussian, Inc.),
 the Gaussian 90(TM) system (copyright 1990, Gaussian, Inc.),
 the Gaussian 88(TM) system (copyright 1988, Gaussian, Inc.),
 the Gaussian 86(TM) system (copyright 1986, Carnegie Mellon
 University), and the Gaussian 82(TM) system (copyright 1983,
 Carnegie Mellon University). Gaussian is a federally registered
 trademark of Gaussian, Inc.
  
 This software contains proprietary and confidential information,
 including trade secrets, belonging to Gaussian, Inc.
  
 This software is provided under written license and may be
 used, copied, transmitted, or stored only in accord with that
 written license.
  
 The following legend is applicable only to US Government
 contracts under FAR:
  
                    RESTRICTED RIGHTS LEGEND
  
 Use, reproduction and disclosure by the US Government is
 subject to restrictions as set forth in subparagraphs (a)
 and (c) of the Commercial Computer Software - Restricted
 Rights clause in FAR 52.227-19.
  
 Gaussian, Inc.
 340 Quinnipiac St., Bldg. 40, Wallingford CT 06492
  
  
 ---------------------------------------------------------------
 Warning -- This program may not be used in any manner that
 competes with the business of Gaussian, Inc. or will provide
 assistance to any competitor of Gaussian, Inc.  The licensee
 of this program is prohibited from giving any competitor of
 Gaussian, Inc. access to this program.  By using this program,
 the user acknowledges that Gaussian, Inc. is engaged in the
 business of creating and licensing software in the field of
 computational chemistry and represents and warrants to the
 licensee that it is not a competitor of Gaussian, Inc. and that
 it will not use this program in any manner prohibited above.
 ---------------------------------------------------------------
  

 Cite this work as:
 Gaussian 16, Revision B.01,
 M. J. Frisch, G. W. Trucks, H. B. Schlegel, G. E. Scuseria, 
 M. A. Robb, J. R. Cheeseman, G. Scalmani, V. Barone, 
 G. A. Petersson, H. Nakatsuji, X. Li, M. Caricato, A. V. Marenich, 
 J. Bloino, B. G. Janesko, R. Gomperts, B. Mennucci, H. P. Hratchian, 
 J. V. Ortiz, A. F. Izmaylov, J. L. Sonnenberg, D. Williams-Young, 
 F. Ding, F. Lipparini, F. Egidi, J. Goings, B. Peng, A. Petrone, 
 T. Henderson, D. Ranasinghe, V. G. Zakrzewski, J. Gao, N. Rega, 
 G. Zheng, W. Liang, M. Hada, M. Ehara, K. Toyota, R. Fukuda, 
 J. Hasegawa, M. Ishida, T. Nakajima, Y. Honda, O. Kitao, H. Nakai, 
 T. Vreven, K. Throssell, J. A. Montgomery, Jr., J. E. Peralta, 
 F. Ogliaro, M. J. Bearpark, J. J. Heyd, E. N. Brothers, K. N. Kudin, 
 V. N. Staroverov, T. A. Keith, R. Kobayashi, J. Normand, 
 K. Raghavachari, A. P. Rendell, J. C. Burant, S. S. Iyengar, 
 J. Tomasi, M. Cossi, J. M. Millam, M. Klene, C. Adamo, R. Cammi, 
 J. W. Ochterski, R. L. Martin, K. Morokuma, O. Farkas, 
 J. B. Foresman, and D. J. Fox, Gaussian, Inc., Wallingford CT, 2016.
 
 ******************************************
 Gaussian 16:  ES64L-G16RevB.01 20-Dec-2017
                 3-Apr-2026 
 ******************************************
 %mem=8GB
 %nprocshare=4
 Will use up to    4 processors via shared memory.
 %chk=frequency_chks/Pentachlorobenzene_anion_product_Freq.chk
 ------------------------------
 # opt freq 6-311++g(d,p) m062x
 ------------------------------
 1/18=20,19=15,26=3,38=1/1,3;
 2/9=110,12=2,17=6,18=5,40=1/2;
 3/5=4,6=6,7=1111,11=2,25=1,30=1,71=1,74=-55/1,2,3;
 4//1;
 5/5=2,38=5/2;
 6/7=2,8=2,9=2,10=2,28=1/1;
 7//1,2,3,16;
 1/18=20,19=15,26=3/3(2);
 2/9=110/2;
 99//99;
 2/9=110/2;
 3/5=4,6=6,7=1111,11=2,25=1,30=1,71=1,74=-55/1,2,3;
 4/5=5,16=3,69=1/1;
 5/5=2,38=5/2;
 7//1,2,3,16;
 1/18=20,19=15,26=3/3(-5);
 2/9=110/2;
 6/7=2,8=2,9=2,10=2,19=2,28=1/1;
 99/9=1/99;
 ----------------------------------------
 1,2,4,5 Tetrachlorobenzene anion radical
 ----------------------------------------
 Symbolic Z-matrix:
 Charge = -1 Multiplicity = 1
 C                     1.21059   0.69489   0. 
 C                     1.21059  -0.69488   0. 
 C                     0.00001  -1.37158   0. 
 C                    -1.21056  -0.69489   0. 
 C                    -1.21056   0.69489   0. 
 C                     0.00001   1.37158   0. 
 Cl                   -0.00002   3.1225    0. 
 Cl                    2.14548   1.24166   0. 
 H                     2.14548  -1.24166   0. 
 Cl                   -0.00002  -3.1225    0. 
 Cl                   -2.14542  -1.24169   0. 
 

 GradGradGradGradGradGradGradGradGradGradGradGradGradGradGradGradGradGrad
 Berny optimization.
 Initialization pass.
                           ----------------------------
                           !    Initial Parameters    !
                           ! (Angstroms and Degrees)  !
 --------------------------                            --------------------------
 ! Name  Definition              Value          Derivative Info.                !
 --------------------------------------------------------------------------------
 ! R1    R(1,2)                  1.3898         estimate D2E/DX2                !
 ! R2    R(1,6)                  1.3869         estimate D2E/DX2                !
 ! R3    R(1,8)                  1.083          estimate D2E/DX2                !
 ! R4    R(2,3)                  1.3869         estimate D2E/DX2                !
 ! R5    R(2,9)                  1.083          estimate D2E/DX2                !
 ! R6    R(3,4)                  1.3869         estimate D2E/DX2                !
 ! R7    R(3,10)                 1.7509         estimate D2E/DX2                !
 ! R8    R(4,5)                  1.3898         estimate D2E/DX2                !
 ! R9    R(4,11)                 1.083          estimate D2E/DX2                !
 ! R10   R(5,6)                  1.3869         estimate D2E/DX2                !
 ! R11   R(6,7)                  1.7509         estimate D2E/DX2                !
 ! A1    A(2,1,6)              119.2045         estimate D2E/DX2                !
 ! A2    A(2,1,8)              120.3215         estimate D2E/DX2                !
 ! A3    A(6,1,8)              120.474          estimate D2E/DX2                !
 ! A4    A(1,2,3)              119.2046         estimate D2E/DX2                !
 ! A5    A(1,2,9)              120.3215         estimate D2E/DX2                !
 ! A6    A(3,2,9)              120.4739         estimate D2E/DX2                !
 ! A7    A(2,3,4)              121.591          estimate D2E/DX2                !
 ! A8    A(2,3,10)             119.2056         estimate D2E/DX2                !
 ! A9    A(4,3,10)             119.2034         estimate D2E/DX2                !
 ! A10   A(3,4,5)              119.2044         estimate D2E/DX2                !
 ! A11   A(3,4,11)             120.472          estimate D2E/DX2                !
 ! A12   A(5,4,11)             120.3236         estimate D2E/DX2                !
 ! A13   A(4,5,6)              119.2045         estimate D2E/DX2                !
 ! A14   A(1,6,5)              121.591          estimate D2E/DX2                !
 ! A15   A(1,6,7)              119.2055         estimate D2E/DX2                !
 ! A16   A(5,6,7)              119.2035         estimate D2E/DX2                !
 ! D1    D(6,1,2,3)              0.0            estimate D2E/DX2                !
 ! D2    D(6,1,2,9)            180.0            estimate D2E/DX2                !
 ! D3    D(8,1,2,3)            180.0            estimate D2E/DX2                !
 ! D4    D(8,1,2,9)              0.0            estimate D2E/DX2                !
 ! D5    D(2,1,6,5)              0.0            estimate D2E/DX2                !
 ! D6    D(2,1,6,7)            180.0            estimate D2E/DX2                !
 ! D7    D(8,1,6,5)            180.0            estimate D2E/DX2                !
 ! D8    D(8,1,6,7)              0.0            estimate D2E/DX2                !
 ! D9    D(1,2,3,4)              0.0            estimate D2E/DX2                !
 ! D10   D(1,2,3,10)           180.0            estimate D2E/DX2                !
 ! D11   D(9,2,3,4)            180.0            estimate D2E/DX2                !
 ! D12   D(9,2,3,10)             0.0            estimate D2E/DX2                !
 ! D13   D(2,3,4,5)              0.0            estimate D2E/DX2                !
 ! D14   D(2,3,4,11)           180.0            estimate D2E/DX2                !
 ! D15   D(10,3,4,5)           180.0            estimate D2E/DX2                !
 ! D16   D(10,3,4,11)            0.0            estimate D2E/DX2                !
 ! D17   D(3,4,5,6)              0.0            estimate D2E/DX2                !
 ! D18   D(11,4,5,6)           180.0            estimate D2E/DX2                !
 ! D19   D(4,5,6,1)              0.0            estimate D2E/DX2                !
 ! D20   D(4,5,6,7)            180.0            estimate D2E/DX2                !
 --------------------------------------------------------------------------------
 Trust Radius=3.00D-01 FncErr=1.00D-07 GrdErr=1.00D-06 EigMax=2.50D+02 EigMin=1.00D-04
 Number of steps in this run=     57 maximum allowed number of steps=    100.
 GradGradGradGradGradGradGradGradGradGradGradGradGradGradGradGradGradGrad

                          Input orientation:                          
 ---------------------------------------------------------------------
 Center     Atomic      Atomic             Coordinates (Angstroms)
 Number     Number       Type             X           Y           Z
 ---------------------------------------------------------------------
      1          6           0        1.210589    0.694885    0.000000
      2          6           0        1.210588   -0.694884    0.000000
      3          6           0        0.000013   -1.371579    0.000000
      4          6           0       -1.210563   -0.694888    0.000000
      5          6           0       -1.210562    0.694887    0.000000
      6          6           0        0.000013    1.371579    0.000000
      7         17           0       -0.000017    3.122505    0.000000
      8         17           0        2.145475    1.241659    0.000000
      9          1           0        2.145475   -1.241659    0.000000
     10         17           0       -0.000018   -3.122505    0.000000
     11         17           0       -2.145418   -1.241690    0.000000
 ---------------------------------------------------------------------
                    Distance matrix (angstroms):
                    1          2          3          4          5
     1  C    0.000000
     2  C    1.389769   0.000000
     3  C    2.394946   1.386870   0.000000
     4  C    2.791674   2.421151   1.386869   0.000000
     5  C    2.421151   2.791672   2.394948   1.389775   0.000000
     6  C    1.386870   2.394945   2.743158   2.394949   1.386868
     7  Cl   2.712730   4.004750   4.494084   4.004736   2.712701
     8  Cl   1.083039   2.150398   3.381127   3.874688   3.400286
     9  H    2.150399   1.083040   2.149392   3.400287   3.874686
    10  Cl   4.004752   2.712731   1.750926   2.712700   4.004735
    11  Cl   3.874675   3.400261   2.149359   1.083026   2.150415
                    6          7          8          9         10
     6  C    0.000000
     7  Cl   1.750926   0.000000
     8  Cl   2.149392   2.853194   0.000000
     9  H    3.381127   4.863030   2.483318   0.000000
    10  Cl   4.494084   6.245010   4.863031   2.853195   0.000000
    11  Cl   3.381131   4.863018   4.957700   4.290893   2.853105
                   11
    11  Cl   0.000000
 Stoichiometry    C6HCl4(1-)
 Framework group  CS[SG(C6HCl4)]
 Deg. of freedom    19
 Full point group                 CS      NOp   2
 Largest Abelian subgroup         CS      NOp   2
 Largest concise Abelian subgroup C1      NOp   1
                         Standard orientation:                         
 ---------------------------------------------------------------------
 Center     Atomic      Atomic             Coordinates (Angstroms)
 Number     Number       Type             X           Y           Z
 ---------------------------------------------------------------------
      1          6           0       -1.190147    0.706716   -0.000000
      2          6           0       -1.190147   -0.683053    0.000000
      3          6           0        0.020427   -1.359749    0.000000
      4          6           0        1.231004   -0.683059    0.000000
      5          6           0        1.231004    0.706716   -0.000000
      6          6           0        0.020429    1.383409   -0.000000
      7         17           0        0.020460    3.134335   -0.000000
      8         17           0       -2.125033    1.253491   -0.000000
      9          1           0       -2.125035   -1.229827    0.000000
     10         17           0        0.020457   -3.110675    0.000000
     11         17           0        2.165858   -1.229861    0.000000
 ---------------------------------------------------------------------
 Rotational constants (GHZ):           1.5183047           0.5471732           0.4022196
 Standard basis: 6-311++G(d,p) (5D, 7F)
 There are   200 symmetry adapted cartesian basis functions of A'  symmetry.
 There are    69 symmetry adapted cartesian basis functions of A"  symmetry.
 There are   190 symmetry adapted basis functions of A'  symmetry.
 There are    69 symmetry adapted basis functions of A"  symmetry.
   259 basis functions,   437 primitive gaussians,   269 cartesian basis functions
    53 alpha electrons       53 beta electrons
       nuclear repulsion energy       906.0564576316 Hartrees.
 NAtoms=   11 NActive=   11 NUniq=   11 SFac= 1.00D+00 NAtFMM=   60 NAOKFM=F Big=F
 Integral buffers will be    131072 words long.
 Raffenetti 2 integral format.
 Two-electron integral symmetry is turned on.
 One-electron integrals computed using PRISM.
 NBasis=   259 RedAO= T EigKep=  1.92D-06  NBF=   190    69
 NBsUse=   257 1.00D-06 EigRej=  9.28D-07 NBFU=   188    69
 ExpMin= 3.60D-02 ExpMax= 1.06D+05 ExpMxC= 3.62D+03 IAcc=3 IRadAn=         5 AccDes= 0.00D+00
 Harris functional with IExCor= 1009 and IRadAn=       5 diagonalized for initial guess.
 HarFok:  IExCor= 1009 AccDes= 0.00D+00 IRadAn=         5 IDoV= 1 UseB2=F ITyADJ=14
 ICtDFT=  3500011 ScaDFX=  1.000000  1.000000  1.000000  1.000000
 FoFCou: FMM=F IPFlag=           0 FMFlag=      100000 FMFlg1=           0
         NFxFlg=           0 DoJE=T BraDBF=F KetDBF=T FulRan=T
         wScrn=  0.000000 ICntrl=       500 IOpCl=  0 I1Cent=   200000004 NGrid=           0
         NMat0=    1 NMatS0=      1 NMatT0=    0 NMatD0=    1 NMtDS0=    0 NMtDT0=    0
 Petite list used in FoFCou.
 Initial guess orbital symmetries:
       Occupied  (A') (A') (A') (A') (A') (A') (A') (A') (A') (A')
                 (A') (A') (A') (A') (A') (A') (A') (A") (A') (A")
                 (A') (A') (A") (A') (A") (A') (A') (A') (A') (A')
                 (A') (A') (A') (A') (A') (A") (A') (A") (A') (A')
                 (A') (A') (A') (A") (A") (A') (A') (A') (A") (A')
                 (A") (A') (A")
       Virtual   (A") (A") (A') (A') (A") (A') (A') (A') (A') (A")
                 (A') (A') (A') (A") (A') (A') (A") (A') (A') (A')
                 (A") (A") (A') (A') (A") (A') (A') (A') (A") (A')
                 (A') (A") (A') (A') (A") (A') (A') (A") (A') (A')
                 (A') (A') (A') (A') (A') (A') (A') (A') (A') (A')
                 (A') (A') (A') (A") (A') (A") (A') (A') (A") (A')
                 (A") (A') (A") (A') (A") (A') (A') (A') (A") (A')
                 (A") (A') (A') (A") (A") (A') (A') (A') (A") (A')
                 (A') (A") (A') (A') (A") (A') (A') (A") (A') (A")
                 (A") (A') (A") (A') (A') (A") (A') (A') (A') (A")
                 (A') (A') (A') (A') (A") (A') (A') (A') (A') (A')
                 (A") (A") (A') (A') (A') (A') (A') (A") (A') (A')
                 (A") (A') (A') (A") (A') (A') (A') (A") (A') (A")
                 (A") (A') (A') (A') (A") (A') (A") (A') (A") (A')
                 (A") (A") (A") (A") (A') (A') (A') (A') (A') (A')
                 (A') (A") (A') (A') (A') (A') (A') (A") (A") (A')
                 (A") (A") (A') (A') (A") (A') (A') (A') (A') (A')
                 (A') (A') (A') (A') (A') (A') (A') (A') (A') (A')
                 (A') (A') (A') (A') (A') (A') (A') (A') (A") (A")
                 (A") (A") (A') (A') (A') (A') (A') (A') (A') (A')
                 (A') (A') (A') (A')
 The electronic state of the initial guess is 1-A'.
 Keep R1 ints in memory in symmetry-blocked form, NReq=864233843.
 Requested convergence on RMS density matrix=1.00D-08 within 128 cycles.
 Requested convergence on MAX density matrix=1.00D-06.
 Requested convergence on             energy=1.00D-06.
 No special actions if energy rises.
 SCF Done:  E(RM062X) =  -2068.51082149     A.U. after   20 cycles
            NFock= 20  Conv=0.42D-08     -V/T= 1.9977

 **********************************************************************

            Population analysis using the SCF Density.

 **********************************************************************

 Orbital symmetries:
       Occupied  (A') (A') (A') (A') (A') (A') (A') (A') (A') (A')
                 (A') (A') (A') (A') (A') (A") (A') (A') (A') (A")
                 (A') (A") (A') (A') (A") (A') (A') (A') (A') (A')
                 (A') (A') (A') (A') (A') (A') (A") (A") (A') (A')
                 (A') (A') (A') (A") (A") (A') (A') (A") (A') (A')
                 (A") (A') (A")
       Virtual   (A') (A') (A') (A") (A') (A') (A") (A') (A") (A')
                 (A") (A') (A") (A') (A') (A') (A') (A") (A') (A")
                 (A") (A') (A') (A') (A") (A') (A") (A') (A') (A")
                 (A') (A") (A') (A") (A') (A') (A') (A') (A') (A')
                 (A') (A') (A') (A') (A') (A') (A') (A') (A') (A')
                 (A') (A') (A") (A') (A") (A') (A") (A') (A") (A')
                 (A') (A') (A") (A') (A') (A") (A') (A") (A') (A")
                 (A') (A") (A') (A") (A') (A') (A') (A') (A') (A")
                 (A') (A") (A') (A') (A') (A') (A") (A') (A") (A')
                 (A") (A") (A') (A') (A") (A') (A") (A') (A') (A')
                 (A') (A') (A') (A") (A') (A') (A") (A') (A') (A')
                 (A') (A') (A') (A") (A') (A") (A') (A') (A") (A')
                 (A") (A') (A') (A") (A') (A') (A') (A") (A') (A")
                 (A") (A') (A') (A') (A") (A') (A") (A") (A") (A')
                 (A") (A') (A') (A') (A") (A') (A") (A') (A') (A')
                 (A') (A') (A') (A') (A") (A') (A') (A') (A") (A")
                 (A') (A") (A") (A') (A") (A') (A') (A') (A') (A')
                 (A') (A') (A') (A') (A') (A') (A') (A') (A') (A')
                 (A') (A') (A') (A') (A') (A') (A') (A') (A") (A")
                 (A") (A") (A') (A') (A') (A') (A') (A') (A') (A')
                 (A') (A') (A') (A')
 The electronic state is 1-A'.
 Alpha  occ. eigenvalues -- -102.54248-102.52010-102.51550-102.49391 -10.43992
 Alpha  occ. eigenvalues --  -10.43484 -10.42124 -10.41529 -10.38831 -10.32173
 Alpha  occ. eigenvalues --   -9.71188  -9.69070  -9.68538  -9.66318  -7.44182
 Alpha  occ. eigenvalues --   -7.42210  -7.42068  -7.42057  -7.41001  -7.40421
 Alpha  occ. eigenvalues --   -7.40403  -7.40109  -7.39920  -7.38782  -7.38202
 Alpha  occ. eigenvalues --   -7.38170  -1.10356  -1.08130  -0.83700  -0.81488
 Alpha  occ. eigenvalues --   -0.74667  -0.67319  -0.62189  -0.59461  -0.52632
 Alpha  occ. eigenvalues --   -0.49718  -0.49396  -0.47016  -0.44916  -0.43954
 Alpha  occ. eigenvalues --   -0.36796  -0.34757  -0.32730  -0.29068  -0.26907
 Alpha  occ. eigenvalues --   -0.25772  -0.23086  -0.19260  -0.19059  -0.15779
 Alpha  occ. eigenvalues --   -0.12938  -0.06890  -0.04753
 Alpha virt. eigenvalues --    0.10274   0.12930   0.13457   0.13842   0.15182
 Alpha virt. eigenvalues --    0.15706   0.16260   0.17052   0.18353   0.19222
 Alpha virt. eigenvalues --    0.19238   0.19800   0.19824   0.20538   0.21815
 Alpha virt. eigenvalues --    0.22346   0.23072   0.23130   0.23158   0.23970
 Alpha virt. eigenvalues --    0.25329   0.25393   0.25790   0.26943   0.27807
 Alpha virt. eigenvalues --    0.28127   0.28380   0.28944   0.30015   0.31146
 Alpha virt. eigenvalues --    0.31378   0.32520   0.33013   0.33536   0.33757
 Alpha virt. eigenvalues --    0.34133   0.35079   0.36752   0.36822   0.37431
 Alpha virt. eigenvalues --    0.37724   0.38496   0.40603   0.40974   0.42489
 Alpha virt. eigenvalues --    0.42679   0.43914   0.44401   0.46781   0.48061
 Alpha virt. eigenvalues --    0.49123   0.56209   0.57274   0.57839   0.59058
 Alpha virt. eigenvalues --    0.60537   0.62645   0.63183   0.63824   0.65473
 Alpha virt. eigenvalues --    0.68730   0.70834   0.71729   0.73577   0.74986
 Alpha virt. eigenvalues --    0.75672   0.76227   0.77626   0.78338   0.80429
 Alpha virt. eigenvalues --    0.81340   0.82005   0.83037   0.84032   0.85474
 Alpha virt. eigenvalues --    0.86288   0.87123   0.89183   0.91872   0.93010
 Alpha virt. eigenvalues --    0.93336   0.97704   0.97908   0.99610   1.02110
 Alpha virt. eigenvalues --    1.04008   1.04817   1.06573   1.06993   1.07463
 Alpha virt. eigenvalues --    1.09079   1.09777   1.11543   1.13252   1.14049
 Alpha virt. eigenvalues --    1.14816   1.14952   1.15920   1.16986   1.21232
 Alpha virt. eigenvalues --    1.23395   1.24718   1.26238   1.28077   1.33733
 Alpha virt. eigenvalues --    1.36449   1.37191   1.38049   1.45533   1.46122
 Alpha virt. eigenvalues --    1.47341   1.49070   1.50838   1.51868   1.52633
 Alpha virt. eigenvalues --    1.53186   1.68283   1.70867   1.71221   1.75897
 Alpha virt. eigenvalues --    1.76811   1.78559   1.89395   1.90496   1.94788
 Alpha virt. eigenvalues --    1.99657   2.05116   2.08698   2.10084   2.11720
 Alpha virt. eigenvalues --    2.13033   2.17010   2.22658   2.30351   2.31090
 Alpha virt. eigenvalues --    2.33725   2.35463   2.42617   2.43802   2.44001
 Alpha virt. eigenvalues --    2.46251   2.47695   2.52016   2.53725   2.54318
 Alpha virt. eigenvalues --    2.54928   2.55240   2.58087   2.60479   2.64976
 Alpha virt. eigenvalues --    2.69803   2.73142   2.78642   2.84981   2.87691
 Alpha virt. eigenvalues --    2.90702   2.98383   2.99668   3.02679   3.08157
 Alpha virt. eigenvalues --    3.13108   3.13126   3.14064   3.23561   3.30114
 Alpha virt. eigenvalues --    3.32482   3.37123   3.39576   3.51782   3.57760
 Alpha virt. eigenvalues --    3.66695   3.78481   3.91192   3.99518   4.07617
 Alpha virt. eigenvalues --    4.27153   4.50617   4.98776  10.10561  10.13484
 Alpha virt. eigenvalues --   10.62962  10.66749  23.88964  24.14464  24.31286
 Alpha virt. eigenvalues --   24.34850  24.57465  24.66110  26.06573  26.07710
 Alpha virt. eigenvalues --   26.09677  26.15328  26.33922  26.39590  26.68556
 Alpha virt. eigenvalues --   26.74001  26.86704  27.05766  29.11582  29.46377
 Alpha virt. eigenvalues --  216.20936 216.23943 217.03496 217.08853
          Condensed to atoms (all electrons):
               1          2          3          4          5          6
     1  C   28.360322   3.887819  -2.736804  -3.585823  -5.841381 -10.889028
     2  C    3.887819  13.041009  -0.593544  -6.435145   2.420478  -6.103120
     3  C   -2.736804  -0.593544  28.105487 -13.145542  -4.785976   1.998914
     4  C   -3.585823  -6.435145 -13.145542  27.122695   0.489358   2.920767
     5  C   -5.841381   2.420478  -4.785976   0.489358  18.745992  -3.679731
     6  C  -10.889028  -6.103120   1.998914   2.920767  -3.679731  22.992471
     7  Cl   1.925950   0.285932   0.638793  -0.675133  -0.915904  -2.055111
     8  Cl  -4.450548  -1.022163  -0.954626   0.930720   1.022607   1.470854
     9  H   -0.409777   0.533214   0.027829  -0.119997   0.193569  -0.024460
    10  Cl  -0.284688   0.063145  -0.677273   0.284602   0.039582   0.060391
    11  Cl   0.839992   0.726027  -1.522807  -1.684630  -1.226045  -1.004749
               7          8          9         10         11
     1  C    1.925950  -4.450548  -0.409777  -0.284688   0.839992
     2  C    0.285932  -1.022163   0.533214   0.063145   0.726027
     3  C    0.638793  -0.954626   0.027829  -0.677273  -1.522807
     4  C   -0.675133   0.930720  -0.119997   0.284602  -1.684630
     5  C   -0.915904   1.022607   0.193569   0.039582  -1.226045
     6  C   -2.055111   1.470854  -0.024460   0.060391  -1.004749
     7  Cl  18.295046  -0.775934  -0.002841  -0.026743   0.040245
     8  Cl  -0.775934  20.562518   0.042487   0.014530  -0.033860
     9  H   -0.002841   0.042487   0.560528   0.009831   0.004268
    10  Cl  -0.026743   0.014530   0.009831  17.639754  -0.403718
    11  Cl   0.040245  -0.033860   0.004268  -0.403718  20.964573
 Mulliken charges:
               1
     1  C   -0.816034
     2  C   -0.803652
     3  C   -0.354450
     4  C   -0.101870
     5  C   -0.462549
     6  C    0.312801
     7  Cl   0.265699
     8  Cl   0.193414
     9  H    0.185350
    10  Cl   0.280587
    11  Cl   0.300704
 Sum of Mulliken charges =  -1.00000
 Mulliken charges with hydrogens summed into heavy atoms:
               1
     1  C   -0.816034
     2  C   -0.618302
     3  C   -0.354450
     4  C   -0.101870
     5  C   -0.462549
     6  C    0.312801
     7  Cl   0.265699
     8  Cl   0.193414
    10  Cl   0.280587
    11  Cl   0.300704
 Electronic spatial extent (au):  <R**2>=           2421.8561
 Charge=             -1.0000 electrons
 Dipole moment (field-independent basis, Debye):
    X=             -3.6293    Y=             -2.3107    Z=              0.0000  Tot=              4.3025
 Quadrupole moment (field-independent basis, Debye-Ang):
   XX=           -100.3261   YY=           -111.5185   ZZ=            -87.6171
   XY=             -1.9223   XZ=             -0.0000   YZ=              0.0000
 Traceless Quadrupole moment (field-independent basis, Debye-Ang):
   XX=             -0.5055   YY=            -11.6979   ZZ=             12.2035
   XY=             -1.9223   XZ=             -0.0000   YZ=              0.0000
 Octapole moment (field-independent basis, Debye-Ang**2):
  XXX=            -24.1311  YYY=             -8.3756  ZZZ=             -0.0000  XYY=             -6.5983
  XXY=            -13.9643  XXZ=             -0.0000  XZZ=             -1.9839  YZZ=             -1.4636
  YYZ=             -0.0000  XYZ=              0.0000
 Hexadecapole moment (field-independent basis, Debye-Ang**3):
 XXXX=          -1130.9263 YYYY=          -2269.9314 ZZZZ=           -110.4854 XXXY=            183.3444
 XXXZ=             -0.0000 YYYX=            198.1305 YYYZ=              0.0000 ZZZX=             -0.0000
 ZZZY=              0.0000 XXYY=           -552.6609 XXZZ=           -198.5939 YYZZ=           -381.1681
 XXYZ=              0.0000 YYXZ=             -0.0000 ZZXY=             60.1423
 N-N= 9.060564576316D+02 E-N=-6.740897479778D+03  KE= 2.073285064759D+03
 Symmetry A'   KE= 1.882760770140D+03
 Symmetry A"   KE= 1.905242946187D+02
 Calling FoFJK, ICntrl=      2127 FMM=F ISym2X=1 I1Cent= 0 IOpClX= 0 NMat=1 NMatS=1 NMatT=0.
 ***** Axes restored to original set *****
 -------------------------------------------------------------------
 Center     Atomic                   Forces (Hartrees/Bohr)
 Number     Number              X              Y              Z
 -------------------------------------------------------------------
      1        6          -1.692463446   -1.003973872    0.000000000
      2        6          -0.048658433   -0.054266220    0.000000000
      3        6           0.075524828    0.020327608   -0.000000000
      4        6           1.727589206    0.977345780   -0.000000000
      5        6           0.036128877    0.099750850   -0.000000000
      6        6          -0.112925833   -0.053906291    0.000000000
      7       17           0.003770347    0.010282707   -0.000000000
      8       17           1.859451528    1.077315094   -0.000000000
      9        1           0.002511593    0.005308557   -0.000000000
     10       17           0.003783952   -0.008629788    0.000000000
     11       17          -1.854712618   -1.069554427    0.000000000
 -------------------------------------------------------------------
 Cartesian Forces:  Max     1.859451528 RMS     0.718854839

 GradGradGradGradGradGradGradGradGradGradGradGradGradGradGradGradGradGrad
 Berny optimization.
 FormGI is forming the generalized inverse of G from B-inverse, IUseBI=4.
 Internal  Forces:  Max     2.148973796 RMS     0.443486502
 Search for a local minimum.
 Step number   1 out of a maximum of   57
 All quantities printed in internal units (Hartrees-Bohrs-Radians)
 Mixed Optimization -- RFO/linear search
 Second derivative matrix not updated -- first step.
 ITU=  0
     Eigenvalues ---    0.02237   0.02241   0.02245   0.02249   0.02253
     Eigenvalues ---    0.02262   0.02262   0.02262   0.16000   0.23459
     Eigenvalues ---    0.25000   0.25000   0.25000   0.25000   0.25000
     Eigenvalues ---    0.25000   0.30398   0.30398   0.35629   0.43640
     Eigenvalues ---    0.43913   0.47358   0.47716   0.47868   0.47868
     Eigenvalues ---   12.00734  12.00898
 RFO step:  Lambda=-7.58698270D-01 EMin= 2.23700423D-02
 Linear search not attempted -- first point.
 Maximum step size (   0.300) exceeded in Quadratic search.
    -- Step size scaled by   0.995
 Iteration  1 RMS(Cart)=  0.06104948 RMS(Int)=  0.00066351
 Iteration  2 RMS(Cart)=  0.00095037 RMS(Int)=  0.00003977
 Iteration  3 RMS(Cart)=  0.00000045 RMS(Int)=  0.00003976
 ClnCor:  largest displacement from symmetrization is 2.20D-09 for atom     9.
 Variable       Old X    -DE/DX   Delta X   Delta X   Delta X     New X
                                 (Linear)    (Quad)   (Total)
    R1        2.62628   0.05048   0.00000   0.04054   0.04060   2.66688
    R2        2.62080   0.08426   0.00000   0.06761   0.06763   2.68844
    R3        2.04665   2.14897   0.00000   0.16744   0.16744   2.21409
    R4        2.62080   0.01081   0.00000   0.00860   0.00864   2.62945
    R5        2.04665  -0.00051   0.00000  -0.00046  -0.00046   2.04619
    R6        2.62080   0.07285   0.00000   0.05868   0.05866   2.67946
    R7        3.30877   0.00863   0.00000   0.00808   0.00808   3.31685
    R8        2.62629   0.07899   0.00000   0.06397   0.06391   2.69020
    R9        2.04662   2.14097   0.00000   0.16680   0.16680   2.21342
   R10        2.62080  -0.01001   0.00000  -0.00796  -0.00799   2.61281
   R11        3.30877   0.01028   0.00000   0.00962   0.00962   3.31839
    A1        2.08051  -0.07010   0.00000  -0.06972  -0.06962   2.01089
    A2        2.10001   0.02605   0.00000   0.02598   0.02593   2.12594
    A3        2.10267   0.04405   0.00000   0.04374   0.04369   2.14635
    A4        2.08051   0.03289   0.00000   0.03285   0.03296   2.11347
    A5        2.10001  -0.02244   0.00000  -0.02291  -0.02297   2.07704
    A6        2.10267  -0.01045   0.00000  -0.00994  -0.00999   2.09267
    A7        2.12216   0.03220   0.00000   0.03161   0.03163   2.15380
    A8        2.08053  -0.02237   0.00000  -0.02199  -0.02200   2.05853
    A9        2.08049  -0.00983   0.00000  -0.00962  -0.00963   2.07086
   A10        2.08051  -0.06062   0.00000  -0.05954  -0.05962   2.02089
   A11        2.10263   0.04380   0.00000   0.04307   0.04311   2.14574
   A12        2.10004   0.01682   0.00000   0.01647   0.01651   2.11655
   A13        2.08051   0.01782   0.00000   0.01787   0.01773   2.09824
   A14        2.12216   0.04781   0.00000   0.04693   0.04692   2.16909
   A15        2.08053  -0.03013   0.00000  -0.02960  -0.02960   2.05093
   A16        2.08049  -0.01768   0.00000  -0.01733  -0.01732   2.06317
    D1        0.00000  -0.00000   0.00000   0.00000   0.00000   0.00000
    D2        3.14159  -0.00000   0.00000  -0.00000   0.00000   3.14159
    D3        3.14159   0.00000   0.00000   0.00000   0.00000   3.14159
    D4       -0.00000  -0.00000   0.00000  -0.00000   0.00000   0.00000
    D5        0.00000   0.00000   0.00000   0.00000   0.00000   0.00000
    D6        3.14159   0.00000   0.00000   0.00000   0.00000   3.14159
    D7        3.14159   0.00000   0.00000  -0.00000   0.00000   3.14159
    D8        0.00000   0.00000   0.00000   0.00000  -0.00000   0.00000
    D9       -0.00000  -0.00000   0.00000  -0.00000   0.00000   0.00000
   D10        3.14159  -0.00000   0.00000  -0.00000   0.00000   3.14159
   D11        3.14159   0.00000   0.00000   0.00000   0.00000   3.14159
   D12        0.00000  -0.00000   0.00000  -0.00000   0.00000   0.00000
   D13        0.00000   0.00000   0.00000   0.00000   0.00000   0.00000
   D14        3.14159   0.00000   0.00000   0.00000   0.00000   3.14159
   D15        3.14159   0.00000   0.00000   0.00000   0.00000   3.14159
   D16        0.00000   0.00000   0.00000   0.00000   0.00000   0.00000
   D17       -0.00000   0.00000   0.00000  -0.00000   0.00000   0.00000
   D18        3.14159   0.00000   0.00000   0.00000   0.00000   3.14159
   D19       -0.00000  -0.00000   0.00000  -0.00000   0.00000   0.00000
   D20        3.14159  -0.00000   0.00000  -0.00000   0.00000   3.14159
         Item               Value     Threshold  Converged?
 Maximum Force            2.148974     0.000450     NO 
 RMS     Force            0.443487     0.000300     NO 
 Maximum Displacement     0.253666     0.001800     NO 
 RMS     Displacement     0.061225     0.001200     NO 
 Predicted change in Energy=-4.134801D-01
 GradGradGradGradGradGradGradGradGradGradGradGradGradGradGradGradGradGrad

                          Input orientation:                          
 ---------------------------------------------------------------------
 Center     Atomic      Atomic             Coordinates (Angstroms)
 Number     Number       Type             X           Y           Z
 ---------------------------------------------------------------------
      1          6           0        1.261428    0.716434   -0.000000
      2          6           0        1.212604   -0.693975    0.000000
      3          6           0       -0.003077   -1.370905    0.000000
      4          6           0       -1.260936   -0.716493    0.000000
      5          6           0       -1.218760    0.706476   -0.000000
      6          6           0       -0.003931    1.366689   -0.000000
      7         17           0       -0.013475    3.122682   -0.000000
      8         17           0        2.277889    1.299151   -0.000000
      9          1           0        2.140859   -1.251465    0.000000
     10         17           0        0.032625   -3.125742    0.000000
     11         17           0       -2.279652   -1.294543    0.000000
 ---------------------------------------------------------------------
                    Distance matrix (angstroms):
                    1          2          3          4          5
     1  C    0.000000
     2  C    1.411253   0.000000
     3  C    2.440482   1.391443   0.000000
     4  C    2.900966   2.473643   1.417909   0.000000
     5  C    2.480208   2.805850   2.406948   1.423594   0.000000
     6  C    1.422661   2.392967   2.737594   2.433046   1.382639
     7  Cl   2.723125   4.008758   4.493599   4.036760   2.700142
     8  Cl   1.171646   2.259952   3.511696   4.072605   3.546522
     9  H    2.155464   1.082799   2.147260   3.443604   3.888518
    10  Cl   4.033891   2.702932   1.755201   2.734553   4.031360
    11  Cl   4.072257   3.543520   2.277856   1.171291   2.264855
                    6          7          8          9         10
     6  C    0.000000
     7  Cl   1.756019   0.000000
     8  Cl   2.282819   2.928415   0.000000
     9  H    3.384502   4.875891   2.554295   0.000000
    10  Cl   4.492580   6.248594   4.961945   2.820916   0.000000
    11  Cl   3.501580   4.964619   5.243895   4.420721   2.949562
                   11
    11  Cl   0.000000
 Stoichiometry    C6HCl4(1-)
 Framework group  CS[SG(C6HCl4)]
 Deg. of freedom    19
 Full point group                 CS      NOp   2
 Largest Abelian subgroup         CS      NOp   2
 Largest concise Abelian subgroup C1      NOp   1
                         Standard orientation:                         
 ---------------------------------------------------------------------
 Center     Atomic      Atomic             Coordinates (Angstroms)
 Number     Number       Type             X           Y           Z
 ---------------------------------------------------------------------
      1          6           0       -1.225055    0.750786    0.000000
      2          6           0       -1.202745   -0.660291    0.000000
      3          6           0        0.000000   -1.359947   -0.000000
      4          6           0        1.269935   -0.729290   -0.000000
      5          6           0        1.254508    0.694221   -0.000000
      6          6           0        0.052300    1.377147    0.000000
      7         17           0        0.094842    3.132651    0.000000
      8         17           0       -2.230386    1.352503    0.000000
      9          1           0       -2.141312   -1.200238    0.000000
     10         17           0       -0.068673   -3.113804   -0.000000
     11         17           0        2.277608   -1.326381   -0.000000
 ---------------------------------------------------------------------
 Rotational constants (GHZ):           1.3937812           0.5321223           0.3850983
 Standard basis: 6-311++G(d,p) (5D, 7F)
 There are   200 symmetry adapted cartesian basis functions of A'  symmetry.
 There are    69 symmetry adapted cartesian basis functions of A"  symmetry.
 There are   190 symmetry adapted basis functions of A'  symmetry.
 There are    69 symmetry adapted basis functions of A"  symmetry.
   259 basis functions,   437 primitive gaussians,   269 cartesian basis functions
    53 alpha electrons       53 beta electrons
       nuclear repulsion energy       880.4669196591 Hartrees.
 NAtoms=   11 NActive=   11 NUniq=   11 SFac= 1.00D+00 NAtFMM=   60 NAOKFM=F Big=F
 Integral buffers will be    131072 words long.
 Raffenetti 2 integral format.
 Two-electron integral symmetry is turned on.
 One-electron integrals computed using PRISM.
 NBasis=   259 RedAO= T EigKep=  1.15D-06  NBF=   190    69
 NBsUse=   258 1.00D-06 EigRej=  6.19D-07 NBFU=   189    69
 Initial guess from the checkpoint file:  "frequency_chks/Pentachlorobenzene_anion_product_Freq.chk"
 B after Tr=    -0.000000   -0.000000   -0.000000
         Rot=    0.999951   -0.000000    0.000000    0.009934 Ang=   1.14 deg.
 Initial guess orbital symmetries:
       Occupied  (A') (A') (A') (A') (A') (A') (A') (A') (A') (A')
                 (A') (A') (A') (A') (A') (A") (A') (A') (A') (A")
                 (A') (A") (A') (A') (A") (A') (A') (A') (A') (A')
                 (A') (A') (A') (A') (A') (A') (A") (A") (A') (A')
                 (A') (A') (A') (A") (A") (A') (A') (A") (A') (A')
                 (A") (A') (A")
       Virtual   (A') (A') (A') (A") (A') (A') (A") (A') (A") (A')
                 (A") (A') (A") (A') (A') (A') (A') (A") (A') (A")
                 (A") (A') (A') (A') (A") (A') (A") (A') (A') (A")
                 (A') (A") (A') (A") (A') (A') (A') (A') (A') (A')
                 (A') (A') (A') (A') (A') (A') (A') (A') (A') (A')
                 (A') (A') (A") (A') (A") (A') (A") (A') (A") (A')
                 (A') (A') (A") (A') (A') (A") (A') (A") (A') (A")
                 (A') (A") (A') (A") (A') (A') (A') (A') (A') (A")
                 (A') (A") (A') (A') (A') (A') (A") (A') (A") (A')
                 (A") (A") (A') (A') (A") (A') (A") (A') (A') (A')
                 (A') (A') (A') (A") (A') (A') (A") (A') (A') (A')
                 (A') (A') (A') (A") (A') (A") (A') (A') (A") (A')
                 (A") (A') (A') (A") (A') (A') (A') (A") (A') (A")
                 (A") (A') (A') (A') (A") (A') (A") (A") (A") (A')
                 (A") (A') (A') (A') (A") (A') (A") (A') (A') (A')
                 (A') (A') (A') (A') (A") (A') (A') (A') (A") (A")
                 (A') (A") (A") (A') (A") (A') (A') (A') (A') (A')
                 (A') (A') (A') (A') (A') (A') (A') (A') (A') (A')
                 (A') (A') (A') (A') (A') (A') (A') (A') (A") (A")
                 (A") (A") (A') (A') (A') (A') (A') (A') (A') (A')
                 (A') (A') (A') (A') (A')
 ExpMin= 3.60D-02 ExpMax= 1.06D+05 ExpMxC= 3.62D+03 IAcc=3 IRadAn=         5 AccDes= 0.00D+00
 Harris functional with IExCor= 1009 and IRadAn=       5 diagonalized for initial guess.
 HarFok:  IExCor= 1009 AccDes= 0.00D+00 IRadAn=         5 IDoV= 1 UseB2=F ITyADJ=14
 ICtDFT=  3500011 ScaDFX=  1.000000  1.000000  1.000000  1.000000
 FoFCou: FMM=F IPFlag=           0 FMFlag=      100000 FMFlg1=           0
         NFxFlg=           0 DoJE=T BraDBF=F KetDBF=T FulRan=T
         wScrn=  0.000000 ICntrl=       500 IOpCl=  0 I1Cent=   200000004 NGrid=           0
         NMat0=    1 NMatS0=      1 NMatT0=    0 NMatD0=    1 NMtDS0=    0 NMtDT0=    0
 Petite list used in FoFCou.
 Keep R1 ints in memory in symmetry-blocked form, NReq=864233843.
 Requested convergence on RMS density matrix=1.00D-08 within 128 cycles.
 Requested convergence on MAX density matrix=1.00D-06.
 Requested convergence on             energy=1.00D-06.
 No special actions if energy rises.
 SCF Done:  E(RM062X) =  -2069.11541726     A.U. after   22 cycles
            NFock= 22  Conv=0.48D-08     -V/T= 1.9992
 Calling FoFJK, ICntrl=      2127 FMM=F ISym2X=1 I1Cent= 0 IOpClX= 0 NMat=1 NMatS=1 NMatT=0.
 ***** Axes restored to original set *****
 -------------------------------------------------------------------
 Center     Atomic                   Forces (Hartrees/Bohr)
 Number     Number              X              Y              Z
 -------------------------------------------------------------------
      1        6          -1.107770789   -0.640855322    0.000000000
      2        6          -0.033102750   -0.020662010    0.000000000
      3        6           0.029085556    0.024825845   -0.000000000
      4        6           1.138135189    0.626775766   -0.000000000
      5        6           0.020203630    0.049162938   -0.000000000
      6        6          -0.056645825   -0.052316817    0.000000000
      7       17           0.004161552    0.013653385   -0.000000000
      8       17           1.187193592    0.677540920   -0.000000000
      9        1           0.002127998    0.002183865   -0.000000000
     10       17           0.002502522   -0.010544637    0.000000000
     11       17          -1.185890675   -0.669763934    0.000000000
 -------------------------------------------------------------------
 Cartesian Forces:  Max     1.187193592 RMS     0.462586550

 GradGradGradGradGradGradGradGradGradGradGradGradGradGradGradGradGradGrad
 Berny optimization.
 Using GEDIIS/GDIIS optimizer.
 FormGI is forming the generalized inverse of G from B-inverse, IUseBI=4.
 Internal  Forces:  Max     1.366924367 RMS     0.281801176
 Search for a local minimum.
 Step number   2 out of a maximum of   57
 All quantities printed in internal units (Hartrees-Bohrs-Radians)
 Mixed Optimization -- RFO/linear search
 Update second derivatives using D2CorX and points    1    2
 DE= -6.05D-01 DEPred=-4.13D-01 R= 1.46D+00
 TightC=F SS=  1.41D+00  RLast= 3.00D-01 DXNew= 5.0454D-01 9.0000D-01
 Trust test= 1.46D+00 RLast= 3.00D-01 DXMaxT set to 5.05D-01
 ITU=  1  0
 Use linear search instead of GDIIS.
 Linear search step of   0.600 exceeds DXMaxT=   0.505 but not scaled.
 Quartic linear search produced a step of  2.00000.
 Iteration  1 RMS(Cart)=  0.09824670 RMS(Int)=  0.02770136
 Iteration  2 RMS(Cart)=  0.02840900 RMS(Int)=  0.00022727
 Iteration  3 RMS(Cart)=  0.00003417 RMS(Int)=  0.00022607
 Iteration  4 RMS(Cart)=  0.00000000 RMS(Int)=  0.00022607
 ClnCor:  largest displacement from symmetrization is 2.42D-09 for atom     9.
 Variable       Old X    -DE/DX   Delta X   Delta X   Delta X     New X
                                 (Linear)    (Quad)   (Total)
    R1        2.66688   0.01634   0.08120   0.00000   0.08154   2.74842
    R2        2.68844   0.03319   0.13527   0.00000   0.13536   2.82380
    R3        2.21409   1.36692   0.33488   0.00000   0.33488   2.54897
    R4        2.62945  -0.00145   0.01728   0.00000   0.01749   2.64694
    R5        2.04619   0.00070  -0.00091   0.00000  -0.00091   2.04528
    R6        2.67946   0.02303   0.11731   0.00000   0.11722   2.79668
    R7        3.31685   0.01059   0.01616   0.00000   0.01616   3.33300
    R8        2.69020   0.03238   0.12782   0.00000   0.12748   2.81768
    R9        2.21342   1.36195   0.33359   0.00000   0.33359   2.54701
   R10        2.61281  -0.01190  -0.01598   0.00000  -0.01618   2.59663
   R11        3.31839   0.01363   0.01925   0.00000   0.01925   3.33764
    A1        2.01089  -0.03780  -0.13924   0.00000  -0.13865   1.87224
    A2        2.12594   0.01597   0.05187   0.00000   0.05157   2.17752
    A3        2.14635   0.02183   0.08737   0.00000   0.08708   2.23343
    A4        2.11347   0.01643   0.06592   0.00000   0.06653   2.18000
    A5        2.07704  -0.01126  -0.04594   0.00000  -0.04624   2.03080
    A6        2.09267  -0.00517  -0.01998   0.00000  -0.02029   2.07239
    A7        2.15380   0.01687   0.06327   0.00000   0.06339   2.21719
    A8        2.05853  -0.01224  -0.04401   0.00000  -0.04407   2.01446
    A9        2.07086  -0.00463  -0.01926   0.00000  -0.01932   2.05154
   A10        2.02089  -0.02736  -0.11924   0.00000  -0.11974   1.90115
   A11        2.14574   0.01670   0.08622   0.00000   0.08647   2.23221
   A12        2.11655   0.01066   0.03302   0.00000   0.03327   2.14982
   A13        2.09824   0.00256   0.03545   0.00000   0.03467   2.13290
   A14        2.16909   0.02930   0.09385   0.00000   0.09381   2.26289
   A15        2.05093  -0.02167  -0.05920   0.00000  -0.05918   1.99175
   A16        2.06317  -0.00764  -0.03465   0.00000  -0.03463   2.02854
    D1       -0.00000   0.00000   0.00000   0.00000   0.00000   0.00000
    D2        3.14159  -0.00000   0.00000   0.00000   0.00000   3.14159
    D3        3.14159   0.00000   0.00000   0.00000   0.00000   3.14159
    D4       -0.00000   0.00000   0.00000   0.00000   0.00000   0.00000
    D5        0.00000  -0.00000   0.00000   0.00000   0.00000   0.00000
    D6        3.14159   0.00000   0.00000   0.00000   0.00000   3.14159
    D7        3.14159  -0.00000   0.00000   0.00000   0.00000   3.14159
    D8        0.00000   0.00000   0.00000   0.00000  -0.00000   0.00000
    D9        0.00000   0.00000   0.00000   0.00000  -0.00000   0.00000
   D10        3.14159  -0.00000   0.00000   0.00000   0.00000   3.14159
   D11        3.14159   0.00000   0.00000   0.00000   0.00000   3.14159
   D12        0.00000  -0.00000   0.00000   0.00000   0.00000   0.00000
   D13        0.00000  -0.00000   0.00000   0.00000   0.00000   0.00000
   D14        3.14159  -0.00000   0.00000   0.00000   0.00000   3.14159
   D15        3.14159   0.00000   0.00000   0.00000   0.00000   3.14159
   D16       -0.00000  -0.00000   0.00000   0.00000   0.00000   0.00000
   D17       -0.00000   0.00000   0.00000   0.00000   0.00000   0.00000
   D18        3.14159   0.00000   0.00000   0.00000   0.00000   3.14159
   D19        0.00000   0.00000   0.00000   0.00000  -0.00000   0.00000
   D20        3.14159  -0.00000   0.00000   0.00000   0.00000   3.14159
         Item               Value     Threshold  Converged?
 Maximum Force            1.366924     0.000450     NO 
 RMS     Force            0.281801     0.000300     NO 
 Maximum Displacement     0.514935     0.001800     NO 
 RMS     Displacement     0.123488     0.001200     NO 
 Predicted change in Energy=-3.830423D-01
 GradGradGradGradGradGradGradGradGradGradGradGradGradGradGradGradGradGrad

                          Input orientation:                          
 ---------------------------------------------------------------------
 Center     Atomic      Atomic             Coordinates (Angstroms)
 Number     Number       Type             X           Y           Z
 ---------------------------------------------------------------------
      1          6           0        1.364196    0.760714   -0.000000
      2          6           0        1.214064   -0.685920   -0.000000
      3          6           0       -0.011253   -1.364560    0.000000
      4          6           0       -1.363403   -0.762976    0.000000
      5          6           0       -1.231979    0.722273    0.000000
      6          6           0       -0.009300    1.349285   -0.000000
      7         17           0       -0.037739    3.115261   -0.000000
      8         17           0        2.545783    1.411305   -0.000000
      9          1           0        2.129095   -1.263957   -0.000000
     10         17           0        0.098254   -3.124908    0.000000
     11         17           0       -2.552144   -1.398206    0.000000
 ---------------------------------------------------------------------
                    Distance matrix (angstroms):
                    1          2          3          4          5
     1  C    0.000000
     2  C    1.454403   0.000000
     3  C    2.531530   1.400698   0.000000
     4  C    3.124328   2.578619   1.479938   0.000000
     5  C    2.596459   2.822435   2.417653   1.491052   0.000000
     6  C    1.494291   2.374590   2.713846   2.509032   1.374077
     7  Cl   2.740313   4.001998   4.479899   4.098549   2.674434
     8  Cl   1.348858   2.484317   3.774104   4.473169   3.840085
     9  H    2.164338   1.082315   2.142710   3.528247   3.904091
    10  Cl   4.086644   2.682106   1.763750   2.777619   4.070666
    11  Cl   4.471985   3.832972   2.541114   1.347821   2.497853
                    6          7          8          9         10
     6  C    0.000000
     7  Cl   1.766205   0.000000
     8  Cl   2.555836   3.094843   0.000000
     9  H    3.376649   4.885971   2.707518   0.000000
    10  Cl   4.475485   6.241650   5.154379   2.754533   0.000000
    11  Cl   3.743630   5.166587   5.820843   4.683163   3.163243
                   11
    11  Cl   0.000000
 Stoichiometry    C6HCl4(1-)
 Framework group  CS[SG(C6HCl4)]
 Deg. of freedom    19
 Full point group                 CS      NOp   2
 Largest Abelian subgroup         CS      NOp   2
 Largest concise Abelian subgroup C1      NOp   1
                         Standard orientation:                         
 ---------------------------------------------------------------------
 Center     Atomic      Atomic             Coordinates (Angstroms)
 Number     Number       Type             X           Y           Z
 ---------------------------------------------------------------------
      1          6           0       -1.315060    0.808467   -0.000000
      2          6           0       -1.205722   -0.641821   -0.000000
      3          6           0        0.000000   -1.354694    0.000000
      4          6           0        1.368554   -0.791421    0.000000
      5          6           0        1.279002    0.696939    0.000000
      6          6           0        0.074463    1.358130   -0.000000
      7         17           0        0.152617    3.122605   -0.000000
      8         17           0       -2.477861    1.492071   -0.000000
      9          1           0       -2.136666   -1.193863   -0.000000
     10         17           0       -0.159031   -3.111260    0.000000
     11         17           0        2.538936   -1.459872    0.000000
 ---------------------------------------------------------------------
 Rotational constants (GHZ):           1.2026547           0.5003229           0.3533315
 Standard basis: 6-311++G(d,p) (5D, 7F)
 There are   200 symmetry adapted cartesian basis functions of A'  symmetry.
 There are    69 symmetry adapted cartesian basis functions of A"  symmetry.
 There are   190 symmetry adapted basis functions of A'  symmetry.
 There are    69 symmetry adapted basis functions of A"  symmetry.
   259 basis functions,   437 primitive gaussians,   269 cartesian basis functions
    53 alpha electrons       53 beta electrons
       nuclear repulsion energy       835.8527920353 Hartrees.
 NAtoms=   11 NActive=   11 NUniq=   11 SFac= 1.00D+00 NAtFMM=   60 NAOKFM=F Big=F
 Integral buffers will be    131072 words long.
 Raffenetti 2 integral format.
 Two-electron integral symmetry is turned on.
 One-electron integrals computed using PRISM.
 NBasis=   259 RedAO= T EigKep=  1.36D-06  NBF=   190    69
 NBsUse=   258 1.00D-06 EigRej=  8.22D-07 NBFU=   189    69
 Initial guess from the checkpoint file:  "frequency_chks/Pentachlorobenzene_anion_product_Freq.chk"
 B after Tr=    -0.000000   -0.000000    0.000000
         Rot=    0.999985    0.000000    0.000000    0.005402 Ang=   0.62 deg.
 Initial guess orbital symmetries:
       Occupied  (A') (A') (A') (A') (A') (A') (A') (A') (A') (A')
                 (A') (A') (A') (A') (A') (A") (A') (A') (A') (A")
                 (A') (A") (A') (A') (A") (A') (A') (A') (A') (A')
                 (A') (A') (A') (A') (A') (A') (A") (A') (A') (A")
                 (A') (A') (A') (A") (A") (A') (A') (A') (A") (A')
                 (A") (A') (A")
       Virtual   (A') (A') (A') (A") (A') (A') (A") (A') (A") (A')
                 (A") (A") (A') (A') (A') (A') (A") (A') (A') (A")
                 (A') (A') (A") (A') (A') (A") (A") (A') (A') (A")
                 (A') (A") (A') (A") (A') (A') (A') (A') (A') (A')
                 (A') (A') (A') (A') (A') (A') (A') (A') (A') (A')
                 (A') (A') (A") (A') (A') (A") (A') (A") (A') (A")
                 (A') (A') (A') (A") (A') (A') (A') (A") (A') (A")
                 (A') (A') (A") (A") (A') (A') (A") (A') (A') (A')
                 (A') (A") (A') (A") (A') (A") (A') (A') (A") (A')
                 (A") (A') (A") (A') (A") (A') (A") (A') (A') (A')
                 (A') (A') (A') (A") (A') (A') (A') (A") (A') (A')
                 (A') (A') (A') (A') (A') (A") (A") (A') (A") (A')
                 (A') (A") (A') (A') (A") (A') (A') (A') (A") (A")
                 (A') (A") (A') (A') (A') (A") (A') (A") (A") (A')
                 (A") (A") (A') (A") (A") (A') (A') (A') (A') (A')
                 (A') (A') (A') (A') (A') (A') (A") (A') (A') (A')
                 (A") (A') (A") (A") (A") (A') (A") (A') (A') (A')
                 (A') (A') (A') (A') (A') (A') (A') (A') (A') (A')
                 (A') (A') (A') (A') (A') (A') (A') (A') (A') (A")
                 (A") (A") (A") (A') (A') (A') (A') (A') (A') (A')
                 (A') (A') (A') (A') (A')
 ExpMin= 3.60D-02 ExpMax= 1.06D+05 ExpMxC= 3.62D+03 IAcc=3 IRadAn=         5 AccDes= 0.00D+00
 Harris functional with IExCor= 1009 and IRadAn=       5 diagonalized for initial guess.
 HarFok:  IExCor= 1009 AccDes= 0.00D+00 IRadAn=         5 IDoV= 1 UseB2=F ITyADJ=14
 ICtDFT=  3500011 ScaDFX=  1.000000  1.000000  1.000000  1.000000
 FoFCou: FMM=F IPFlag=           0 FMFlag=      100000 FMFlg1=           0
         NFxFlg=           0 DoJE=T BraDBF=F KetDBF=T FulRan=T
         wScrn=  0.000000 ICntrl=       500 IOpCl=  0 I1Cent=   200000004 NGrid=           0
         NMat0=    1 NMatS0=      1 NMatT0=    0 NMatD0=    1 NMtDS0=    0 NMtDT0=    0
 Petite list used in FoFCou.
 Keep R1 ints in memory in symmetry-blocked form, NReq=864233843.
 Requested convergence on RMS density matrix=1.00D-08 within 128 cycles.
 Requested convergence on MAX density matrix=1.00D-06.
 Requested convergence on             energy=1.00D-06.
 No special actions if energy rises.
 SCF Done:  E(RM062X) =  -2069.70459708     A.U. after   19 cycles
            NFock= 19  Conv=0.82D-08     -V/T= 2.0012
 Calling FoFJK, ICntrl=      2127 FMM=F ISym2X=1 I1Cent= 0 IOpClX= 0 NMat=1 NMatS=1 NMatT=0.
 ***** Axes restored to original set *****
 -------------------------------------------------------------------
 Center     Atomic                   Forces (Hartrees/Bohr)
 Number     Number              X              Y              Z
 -------------------------------------------------------------------
      1        6          -0.498395023   -0.274162925    0.000000000
      2        6          -0.003295019    0.026746436   -0.000000000
      3        6          -0.035862865    0.024594312    0.000000000
      4        6           0.518835435    0.277005563   -0.000000000
      5        6          -0.007864150   -0.022191617    0.000000000
      6        6           0.019450527   -0.037242506    0.000000000
      7       17           0.004259225    0.018844385   -0.000000000
      8       17           0.447937217    0.249028444   -0.000000000
      9        1           0.000826435   -0.003028408    0.000000000
     10       17           0.001051662   -0.013160325    0.000000000
     11       17          -0.446943444   -0.246433360    0.000000000
 -------------------------------------------------------------------
 Cartesian Forces:  Max     0.518835435 RMS     0.190543899

 GradGradGradGradGradGradGradGradGradGradGradGradGradGradGradGradGradGrad
 Berny optimization.
 Using GEDIIS/GDIIS optimizer.
 FormGI is forming the generalized inverse of G from B-inverse, IUseBI=4.
 Internal  Forces:  Max     0.512501683 RMS     0.106413949
 Search for a local minimum.
 Step number   3 out of a maximum of   57
 All quantities printed in internal units (Hartrees-Bohrs-Radians)
 Mixed Optimization -- RFO/linear search
 Update second derivatives using D2CorX and points    2    3
 ITU=  0  1  0
 Use linear search instead of GDIIS.
 Linear search step of   1.200 exceeds DXMaxT=   0.505 scaled by   0.841
 Quartic linear search produced a step of  1.68181.
 Iteration  1 RMS(Cart)=  0.13988158 RMS(Int)=  0.07478506
 Iteration  2 RMS(Cart)=  0.04682524 RMS(Int)=  0.03313590
 Iteration  3 RMS(Cart)=  0.03309106 RMS(Int)=  0.00060366
 Iteration  4 RMS(Cart)=  0.00000593 RMS(Int)=  0.00060365
 Iteration  5 RMS(Cart)=  0.00000000 RMS(Int)=  0.00060365
 ClnCor:  largest displacement from symmetrization is 8.09D-09 for atom     8.
 Variable       Old X    -DE/DX   Delta X   Delta X   Delta X     New X
                                 (Linear)    (Quad)   (Total)
    R1        2.74842  -0.03495   0.13714   0.00000   0.13801   2.88644
    R2        2.82380  -0.03575   0.22765   0.00000   0.22776   3.05156
    R3        2.54897   0.51250   0.56321   0.00000   0.56321   3.11218
    R4        2.64694  -0.02020   0.02941   0.00000   0.02996   2.67689
    R5        2.04528   0.00232  -0.00154   0.00000  -0.00154   2.04374
    R6        2.79668  -0.04857   0.19714   0.00000   0.19701   2.99369
    R7        3.33300   0.01320   0.02717   0.00000   0.02717   3.36018
    R8        2.81768  -0.03375   0.21439   0.00000   0.21351   3.03119
    R9        2.54701   0.51034   0.56104   0.00000   0.56104   3.10805
   R10        2.59663  -0.01486  -0.02721   0.00000  -0.02771   2.56892
   R11        3.33764   0.01877   0.03237   0.00000   0.03237   3.37002
    A1        1.87224   0.01314  -0.23319   0.00000  -0.23154   1.64070
    A2        2.17752  -0.00389   0.08674   0.00000   0.08591   2.26343
    A3        2.23343  -0.00925   0.14645   0.00000   0.14563   2.37906
    A4        2.18000  -0.00852   0.11188   0.00000   0.11345   2.29344
    A5        2.03080   0.00642  -0.07777   0.00000  -0.07855   1.95225
    A6        2.07239   0.00210  -0.03412   0.00000  -0.03490   2.03749
    A7        2.21719  -0.00725   0.10661   0.00000   0.10695   2.32413
    A8        2.01446   0.00323  -0.07411   0.00000  -0.07428   1.94018
    A9        2.05154   0.00403  -0.03250   0.00000  -0.03267   2.01887
   A10        1.90115   0.02380  -0.20137   0.00000  -0.20277   1.69839
   A11        2.23221  -0.02045   0.14543   0.00000   0.14612   2.37834
   A12        2.14982  -0.00336   0.05595   0.00000   0.05664   2.20646
   A13        2.13290  -0.01946   0.05830   0.00000   0.05626   2.18916
   A14        2.26289  -0.00171   0.15777   0.00000   0.15765   2.42054
   A15        1.99175  -0.00674  -0.09953   0.00000  -0.09947   1.89228
   A16        2.02854   0.00845  -0.05824   0.00000  -0.05818   1.97036
    D1       -0.00000  -0.00000   0.00000   0.00000   0.00000   0.00000
    D2        3.14159  -0.00000   0.00000   0.00000   0.00000   3.14159
    D3        3.14159   0.00000   0.00000   0.00000   0.00000   3.14159
    D4        0.00000   0.00000   0.00000   0.00000   0.00000   0.00000
    D5        0.00000  -0.00000   0.00000   0.00000   0.00000   0.00000
    D6        3.14159   0.00000   0.00000   0.00000   0.00000   3.14159
    D7        3.14159  -0.00000   0.00000   0.00000   0.00000   3.14159
    D8       -0.00000  -0.00000   0.00000   0.00000   0.00000   0.00000
    D9        0.00000   0.00000   0.00000   0.00000  -0.00000   0.00000
   D10        3.14159   0.00000   0.00000   0.00000   0.00000   3.14159
   D11        3.14159   0.00000   0.00000   0.00000   0.00000   3.14159
   D12       -0.00000   0.00000   0.00000   0.00000   0.00000   0.00000
   D13       -0.00000  -0.00000   0.00000   0.00000   0.00000   0.00000
   D14        3.14159   0.00000   0.00000   0.00000   0.00000   3.14159
   D15        3.14159  -0.00000   0.00000   0.00000   0.00000   3.14159
   D16       -0.00000   0.00000   0.00000   0.00000   0.00000   0.00000
   D17        0.00000  -0.00000   0.00000   0.00000   0.00000   0.00000
   D18        3.14159  -0.00000   0.00000   0.00000   0.00000   3.14159
   D19       -0.00000   0.00000   0.00000   0.00000   0.00000   0.00000
   D20        3.14159  -0.00000   0.00000   0.00000   0.00000   3.14159
         Item               Value     Threshold  Converged?
 Maximum Force            0.512502     0.000450     NO 
 RMS     Force            0.106414     0.000300     NO 
 Maximum Displacement     0.883250     0.001800     NO 
 RMS     Displacement     0.210735     0.001200     NO 
 Predicted change in Energy=-3.635759D-01
 GradGradGradGradGradGradGradGradGradGradGradGradGradGradGradGradGradGrad

                          Input orientation:                          
 ---------------------------------------------------------------------
 Center     Atomic      Atomic             Coordinates (Angstroms)
 Number     Number       Type             X           Y           Z
 ---------------------------------------------------------------------
      1          6           0        1.538423    0.838255   -0.000000
      2          6           0        1.208275   -0.653075   -0.000000
      3          6           0       -0.031601   -1.338145    0.000000
      4          6           0       -1.538981   -0.850840    0.000000
      5          6           0       -1.243788    0.725802    0.000000
      6          6           0       -0.009992    1.296556   -0.000000
      7         17           0       -0.070104    3.078879   -0.000000
      8         17           0        3.003171    1.591103   -0.000000
      9          1           0        2.101293   -1.263130   -0.000000
     10         17           0        0.208418   -3.100000    0.000000
     11         17           0       -3.019539   -1.567093    0.000000
 ---------------------------------------------------------------------
                    Distance matrix (angstroms):
                    1          2          3          4          5
     1  C    0.000000
     2  C    1.527437   0.000000
     3  C    2.683597   1.416551   0.000000
     4  C    3.510478   2.754365   1.584190   0.000000
     5  C    2.784483   2.813169   2.393591   1.604039   0.000000
     6  C    1.614816   2.298964   2.634790   2.636118   1.359416
     7  Cl   2.758216   3.944836   4.417192   4.195270   2.629544
     8  Cl   1.646896   2.873671   4.217860   5.156959   4.334214
     9  H    2.175463   1.081502   2.134213   3.663546   3.891711
    10  Cl   4.156774   2.643323   1.778129   2.848179   4.092147
    11  Cl   5.153709   4.325488   2.996697   1.644710   2.900114
                    6          7          8          9         10
     6  C    0.000000
     7  Cl   1.783336   0.000000
     8  Cl   3.027526   3.414454   0.000000
     9  H    3.318059   4.854689   2.993331   0.000000
    10  Cl   4.401978   6.185153   5.460503   2.637625   0.000000
    11  Cl   4.154258   5.503110   6.800533   5.129846   3.573446
                   11
    11  Cl   0.000000
 Stoichiometry    C6HCl4(1-)
 Framework group  CS[SG(C6HCl4)]
 Deg. of freedom    19
 Full point group                 CS      NOp   2
 Largest Abelian subgroup         CS      NOp   2
 Largest concise Abelian subgroup C1      NOp   1
                         Standard orientation:                         
 ---------------------------------------------------------------------
 Center     Atomic      Atomic             Coordinates (Angstroms)
 Number     Number       Type             X           Y           Z
 ---------------------------------------------------------------------
      1          6           0       -1.531608    0.796173   -0.000000
      2          6           0       -1.149991   -0.682824    0.000000
      3          6           0        0.112875   -1.324528    0.000000
      4          6           0        1.602467   -0.785292    0.000000
      5          6           0        1.252829    0.780177   -0.000000
      6          6           0       -0.000000    1.307843   -0.000000
      7         17           0       -0.001672    3.091178   -0.000000
      8         17           0       -3.021559    1.497823   -0.000000
      9          1           0       -2.021337   -1.323451    0.000000
     10         17           0       -0.065961   -3.093641    0.000000
     11         17           0        3.106951   -1.449821    0.000000
 ---------------------------------------------------------------------
 Rotational constants (GHZ):           1.0115785           0.4404913           0.3068665
 Standard basis: 6-311++G(d,p) (5D, 7F)
 There are   200 symmetry adapted cartesian basis functions of A'  symmetry.
 There are    69 symmetry adapted cartesian basis functions of A"  symmetry.
 There are   190 symmetry adapted basis functions of A'  symmetry.
 There are    69 symmetry adapted basis functions of A"  symmetry.
   259 basis functions,   437 primitive gaussians,   269 cartesian basis functions
    53 alpha electrons       53 beta electrons
       nuclear repulsion energy       776.3177327621 Hartrees.
 NAtoms=   11 NActive=   11 NUniq=   11 SFac= 1.00D+00 NAtFMM=   60 NAOKFM=F Big=F
 Integral buffers will be    131072 words long.
 Raffenetti 2 integral format.
 Two-electron integral symmetry is turned on.
 One-electron integrals computed using PRISM.
 NBasis=   259 RedAO= T EigKep=  1.11D-06  NBF=   190    69
 NBsUse=   259 1.00D-06 EigRej= -1.00D+00 NBFU=   190    69
 Initial guess from the checkpoint file:  "frequency_chks/Pentachlorobenzene_anion_product_Freq.chk"
 B after Tr=     0.000000    0.000000   -0.000000
         Rot=    0.999516   -0.000000   -0.000000   -0.031101 Ang=  -3.56 deg.
 Initial guess orbital symmetries:
       Occupied  (A') (A') (A') (A') (A') (A') (A') (A') (A') (A')
                 (A') (A') (A') (A') (A') (A") (A') (A') (A") (A')
                 (A') (A") (A') (A') (A") (A') (A') (A') (A') (A')
                 (A') (A') (A') (A') (A') (A') (A') (A') (A") (A")
                 (A') (A') (A') (A") (A") (A') (A') (A') (A') (A")
                 (A") (A") (A')
       Virtual   (A') (A') (A') (A") (A') (A') (A") (A') (A") (A")
                 (A') (A") (A') (A') (A') (A") (A') (A') (A') (A")
                 (A') (A') (A") (A') (A') (A") (A") (A') (A') (A")
                 (A') (A") (A') (A") (A') (A') (A') (A') (A') (A')
                 (A') (A') (A') (A') (A') (A') (A') (A') (A') (A')
                 (A') (A') (A') (A") (A') (A") (A') (A') (A") (A')
                 (A") (A') (A') (A') (A') (A") (A') (A') (A") (A')
                 (A") (A') (A') (A") (A") (A') (A') (A") (A') (A')
                 (A") (A') (A') (A") (A') (A") (A") (A') (A') (A')
                 (A") (A') (A") (A') (A") (A') (A") (A') (A') (A')
                 (A') (A') (A') (A') (A") (A') (A') (A') (A") (A')
                 (A') (A') (A') (A') (A") (A') (A") (A') (A") (A')
                 (A") (A') (A') (A') (A") (A') (A') (A') (A") (A')
                 (A') (A") (A') (A") (A") (A') (A') (A") (A') (A")
                 (A") (A') (A") (A') (A") (A") (A') (A') (A') (A')
                 (A') (A') (A') (A') (A') (A') (A') (A') (A") (A')
                 (A') (A") (A") (A") (A") (A') (A') (A") (A') (A')
                 (A') (A') (A') (A') (A') (A') (A') (A') (A') (A')
                 (A') (A') (A') (A') (A') (A') (A') (A') (A') (A")
                 (A") (A") (A") (A') (A') (A') (A') (A') (A') (A')
                 (A') (A') (A') (A') (A') (A')
 ExpMin= 3.60D-02 ExpMax= 1.06D+05 ExpMxC= 3.62D+03 IAcc=3 IRadAn=         5 AccDes= 0.00D+00
 Harris functional with IExCor= 1009 and IRadAn=       5 diagonalized for initial guess.
 HarFok:  IExCor= 1009 AccDes= 0.00D+00 IRadAn=         5 IDoV= 1 UseB2=F ITyADJ=14
 ICtDFT=  3500011 ScaDFX=  1.000000  1.000000  1.000000  1.000000
 FoFCou: FMM=F IPFlag=           0 FMFlag=      100000 FMFlg1=           0
         NFxFlg=           0 DoJE=T BraDBF=F KetDBF=T FulRan=T
         wScrn=  0.000000 ICntrl=       500 IOpCl=  0 I1Cent=   200000004 NGrid=           0
         NMat0=    1 NMatS0=      1 NMatT0=    0 NMatD0=    1 NMtDS0=    0 NMtDT0=    0
 Petite list used in FoFCou.
 Keep R1 ints in memory in symmetry-blocked form, NReq=864233843.
 Requested convergence on RMS density matrix=1.00D-08 within 128 cycles.
 Requested convergence on MAX density matrix=1.00D-06.
 Requested convergence on             energy=1.00D-06.
 No special actions if energy rises.
 SCF Done:  E(RM062X) =  -2069.83915684     A.U. after   24 cycles
            NFock= 24  Conv=0.91D-08     -V/T= 2.0027
 Calling FoFJK, ICntrl=      2127 FMM=F ISym2X=1 I1Cent= 0 IOpClX= 0 NMat=1 NMatS=1 NMatT=0.
 ***** Axes restored to original set *****
 -------------------------------------------------------------------
 Center     Atomic                   Forces (Hartrees/Bohr)
 Number     Number              X              Y              Z
 -------------------------------------------------------------------
      1        6          -0.191856313   -0.109291230    0.000000000
      2        6           0.040766621    0.059766868   -0.000000000
      3        6          -0.084200590    0.006552480    0.000000000
      4        6           0.203942187    0.118161682   -0.000000000
      5        6          -0.041054254   -0.080419346    0.000000000
      6        6           0.066719994    0.011240523   -0.000000000
      7       17           0.003388892    0.024816789   -0.000000000
      8       17           0.021611114    0.011885725   -0.000000000
      9        1          -0.002069541   -0.009637053    0.000000000
     10       17          -0.000498135   -0.016055496    0.000000000
     11       17          -0.016749974   -0.017020942    0.000000000
 -------------------------------------------------------------------
 Cartesian Forces:  Max     0.203942187 RMS     0.063141602

 GradGradGradGradGradGradGradGradGradGradGradGradGradGradGradGradGradGrad
 Berny optimization.
 Using GEDIIS/GDIIS optimizer.
 FormGI is forming the generalized inverse of G from B-inverse, IUseBI=4.
 Internal  Forces:  Max     0.108884097 RMS     0.036913280
 Search for a local minimum.
 Step number   4 out of a maximum of   57
 All quantities printed in internal units (Hartrees-Bohrs-Radians)
 Mixed Optimization -- RFO/linear search
 Update second derivatives using D2CorX and points    3    4
 ITU=  0  0  1  0
 Use linear search instead of GDIIS.
     Eigenvalues ---    0.02238   0.02243   0.02247   0.02251   0.02256
     Eigenvalues ---    0.02262   0.02262   0.02262   0.16008   0.23516
     Eigenvalues ---    0.24909   0.25000   0.25000   0.25000   0.25000
     Eigenvalues ---    0.27059   0.30306   0.30398   0.35630   0.42760
     Eigenvalues ---    0.45302   0.45501   0.47557   0.47791   0.48185
     Eigenvalues ---    0.97355  12.00817
 RFO step:  Lambda=-1.40252795D-01 EMin= 2.23825997D-02
 Quartic linear search produced a step of -0.32008.
 Iteration  1 RMS(Cart)=  0.13904747 RMS(Int)=  0.00846403
 Iteration  2 RMS(Cart)=  0.01153832 RMS(Int)=  0.00031283
 Iteration  3 RMS(Cart)=  0.00005947 RMS(Int)=  0.00031030
 Iteration  4 RMS(Cart)=  0.00000001 RMS(Int)=  0.00031030
 ClnCor:  largest displacement from symmetrization is 3.57D-09 for atom     9.
 Variable       Old X    -DE/DX   Delta X   Delta X   Delta X     New X
                                 (Linear)    (Quad)   (Total)
    R1        2.88644  -0.08054  -0.04417  -0.11116  -0.15580   2.73064
    R2        3.05156  -0.08086  -0.07290  -0.11126  -0.18440   2.86716
    R3        3.11218   0.02465  -0.18027   0.10204  -0.07823   3.03395
    R4        2.67689  -0.04054  -0.00959  -0.05690  -0.06667   2.61022
    R5        2.04374   0.00373   0.00049   0.00678   0.00727   2.05102
    R6        2.99369  -0.10888  -0.06306  -0.15151  -0.21432   2.77937
    R7        3.36018   0.01584  -0.00870   0.03176   0.02307   3.38324
    R8        3.03119  -0.08681  -0.06834  -0.12014  -0.18801   2.84319
    R9        3.10805   0.02249  -0.17958   0.10152  -0.07806   3.03000
   R10        2.56892  -0.01969   0.00887  -0.02876  -0.01973   2.54919
   R11        3.37002   0.02469  -0.01036   0.04916   0.03879   3.40881
    A1        1.64070   0.07488   0.07411   0.17911   0.25231   1.89301
    A2        2.26343  -0.03637  -0.02750  -0.08219  -0.10924   2.15419
    A3        2.37906  -0.03851  -0.04661  -0.09692  -0.14307   2.23599
    A4        2.29344  -0.03605  -0.03631  -0.09157  -0.12861   2.16483
    A5        1.95225   0.02735   0.02514   0.07439   0.09990   2.05215
    A6        2.03749   0.00870   0.01117   0.01717   0.02871   2.06620
    A7        2.32413  -0.03536  -0.03423  -0.08363  -0.11782   2.20631
    A8        1.94018   0.02215   0.02377   0.05211   0.07587   2.01605
    A9        2.01887   0.01321   0.01046   0.03151   0.04195   2.06082
   A10        1.69839   0.08186   0.06490   0.18776   0.25345   1.95184
   A11        2.37834  -0.05340  -0.04677  -0.12812  -0.17529   2.20305
   A12        2.20646  -0.02846  -0.01813  -0.05964  -0.07816   2.12830
   A13        2.18916  -0.03992  -0.01801  -0.09293  -0.10999   2.07917
   A14        2.42054  -0.04541  -0.05046  -0.09875  -0.14934   2.27121
   A15        1.89228   0.01558   0.03184   0.03316   0.06506   1.95733
   A16        1.97036   0.02983   0.01862   0.06559   0.08428   2.05464
    D1       -0.00000   0.00000   0.00000   0.00000   0.00000   0.00000
    D2        3.14159   0.00000   0.00000   0.00000   0.00000   3.14159
    D3        3.14159  -0.00000   0.00000   0.00000   0.00000   3.14159
    D4        0.00000   0.00000   0.00000   0.00000   0.00000   0.00000
    D5        0.00000  -0.00000   0.00000  -0.00000  -0.00000   0.00000
    D6        3.14159  -0.00000   0.00000  -0.00000   0.00000   3.14159
    D7        3.14159  -0.00000   0.00000  -0.00000   0.00000   3.14159
    D8       -0.00000  -0.00000   0.00000  -0.00000   0.00000   0.00000
    D9        0.00000   0.00000   0.00000   0.00000  -0.00000   0.00000
   D10        3.14159   0.00000   0.00000   0.00000   0.00000   3.14159
   D11        3.14159   0.00000   0.00000   0.00000   0.00000   3.14159
   D12        0.00000   0.00000   0.00000   0.00000   0.00000   0.00000
   D13       -0.00000  -0.00000   0.00000  -0.00000   0.00000   0.00000
   D14        3.14159  -0.00000   0.00000   0.00000   0.00000   3.14159
   D15        3.14159  -0.00000   0.00000  -0.00000   0.00000   3.14159
   D16       -0.00000  -0.00000   0.00000   0.00000   0.00000   0.00000
   D17        0.00000   0.00000   0.00000   0.00000  -0.00000   0.00000
   D18        3.14159   0.00000   0.00000  -0.00000   0.00000   3.14159
   D19       -0.00000   0.00000   0.00000   0.00000   0.00000   0.00000
   D20        3.14159   0.00000   0.00000   0.00000   0.00000   3.14159
         Item               Value     Threshold  Converged?
 Maximum Force            0.108884     0.000450     NO 
 RMS     Force            0.036913     0.000300     NO 
 Maximum Displacement     0.535451     0.001800     NO 
 RMS     Displacement     0.147057     0.001200     NO 
 Predicted change in Energy=-7.820226D-02
 GradGradGradGradGradGradGradGradGradGradGradGradGradGradGradGradGradGrad

                          Input orientation:                          
 ---------------------------------------------------------------------
 Center     Atomic      Atomic             Coordinates (Angstroms)
 Number     Number       Type             X           Y           Z
 ---------------------------------------------------------------------
      1          6           0        1.339290    0.745710   -0.000000
      2          6           0        1.210356   -0.693517   -0.000000
      3          6           0        0.001297   -1.361413    0.000000
      4          6           0       -1.335229   -0.747501    0.000000
      5          6           0       -1.260710    0.755201    0.000000
      6          6           0       -0.051256    1.352659   -0.000000
      7         17           0       -0.006131    3.155960   -0.000000
      8         17           0        2.752804    1.507028   -0.000000
      9          1           0        2.123701   -1.279850   -0.000000
     10         17           0        0.107643   -3.148587    0.000000
     11         17           0       -2.736191   -1.527381    0.000000
 ---------------------------------------------------------------------
                    Distance matrix (angstroms):
                    1          2          3          4          5
     1  C    0.000000
     2  C    1.444991   0.000000
     3  C    2.496036   1.381271   0.000000
     4  C    3.063125   2.546157   1.470778   0.000000
     5  C    2.600017   2.864428   2.464288   1.504549   0.000000
     6  C    1.517236   2.403851   2.714581   2.461557   1.348976
     7  Cl   2.760337   4.037117   4.517379   4.123531   2.708802
     8  Cl   1.605498   2.687293   3.974763   4.668502   4.083324
     9  H    2.172141   1.085350   2.123971   3.499656   3.949135
    10  Cl   4.084422   2.691346   1.790335   2.801266   4.136659
    11  Cl   4.666529   4.033679   2.742514   1.603405   2.717945
                    6          7          8          9         10
     6  C    0.000000
     7  Cl   1.803865   0.000000
     8  Cl   2.808306   3.214141   0.000000
     9  H    3.414754   4.920630   2.857002   0.000000
    10  Cl   4.504050   6.305573   5.354589   2.748939   0.000000
    11  Cl   3.937449   5.420969   6.271898   4.866192   3.273484
                   11
    11  Cl   0.000000
 Stoichiometry    C6HCl4(1-)
 Framework group  CS[SG(C6HCl4)]
 Deg. of freedom    19
 Full point group                 CS      NOp   2
 Largest Abelian subgroup         CS      NOp   2
 Largest concise Abelian subgroup C1      NOp   1
                         Standard orientation:                         
 ---------------------------------------------------------------------
 Center     Atomic      Atomic             Coordinates (Angstroms)
 Number     Number       Type             X           Y           Z
 ---------------------------------------------------------------------
      1          6           0       -1.286810    0.788327    0.000000
      2          6           0       -1.192608   -0.653589    0.000000
      3          6           0        0.000000   -1.350437   -0.000000
      4          6           0        1.350936   -0.768922   -0.000000
      5          6           0        1.312663    0.735140   -0.000000
      6          6           0        0.117963    1.361580    0.000000
      7         17           0        0.116322    3.165444    0.000000
      8         17           0       -2.681561    1.583498    0.000000
      9          1           0       -2.119821   -1.217736    0.000000
     10         17           0       -0.149396   -3.134528   -0.000000
     11         17           0        2.732692   -1.582346   -0.000000
 ---------------------------------------------------------------------
 Rotational constants (GHZ):           1.1231406           0.4640553           0.3283774
 Standard basis: 6-311++G(d,p) (5D, 7F)
 There are   200 symmetry adapted cartesian basis functions of A'  symmetry.
 There are    69 symmetry adapted cartesian basis functions of A"  symmetry.
 There are   190 symmetry adapted basis functions of A'  symmetry.
 There are    69 symmetry adapted basis functions of A"  symmetry.
   259 basis functions,   437 primitive gaussians,   269 cartesian basis functions
    53 alpha electrons       53 beta electrons
       nuclear repulsion energy       801.9984502286 Hartrees.
 NAtoms=   11 NActive=   11 NUniq=   11 SFac= 1.00D+00 NAtFMM=   60 NAOKFM=F Big=F
 Integral buffers will be    131072 words long.
 Raffenetti 2 integral format.
 Two-electron integral symmetry is turned on.
 One-electron integrals computed using PRISM.
 NBasis=   259 RedAO= T EigKep=  1.01D-06  NBF=   190    69
 NBsUse=   259 1.00D-06 EigRej= -1.00D+00 NBFU=   190    69
 Initial guess from the checkpoint file:  "frequency_chks/Pentachlorobenzene_anion_product_Freq.chk"
 B after Tr=     0.000000    0.000000    0.000000
         Rot=    0.999579   -0.000000   -0.000000    0.029024 Ang=   3.33 deg.
 Initial guess orbital symmetries:
       Occupied  (A') (A') (A') (A') (A') (A') (A') (A') (A') (A')
                 (A') (A') (A') (A') (A') (A") (A') (A') (A") (A')
                 (A') (A') (A") (A') (A") (A') (A') (A') (A') (A')
                 (A') (A') (A') (A') (A') (A') (A') (A') (A") (A')
                 (A') (A") (A') (A") (A') (A") (A') (A') (A") (A')
                 (A") (A") (A')
       Virtual   (A") (A') (A') (A') (A') (A') (A") (A') (A") (A")
                 (A') (A') (A') (A") (A') (A") (A') (A') (A') (A')
                 (A") (A') (A') (A') (A") (A') (A') (A') (A") (A")
                 (A') (A") (A') (A") (A') (A") (A') (A') (A') (A')
                 (A') (A') (A') (A') (A') (A') (A') (A') (A') (A')
                 (A') (A') (A') (A') (A') (A') (A") (A') (A") (A')
                 (A") (A') (A') (A") (A') (A') (A') (A") (A') (A')
                 (A') (A") (A") (A") (A') (A") (A') (A") (A') (A')
                 (A') (A") (A') (A') (A") (A') (A') (A") (A') (A")
                 (A') (A") (A') (A') (A') (A") (A') (A') (A") (A')
                 (A") (A') (A') (A') (A') (A') (A") (A') (A') (A')
                 (A") (A') (A') (A') (A') (A") (A') (A") (A') (A')
                 (A") (A") (A') (A') (A') (A') (A") (A') (A') (A")
                 (A') (A") (A') (A") (A') (A') (A") (A') (A") (A')
                 (A') (A') (A") (A') (A") (A") (A') (A") (A') (A")
                 (A') (A') (A') (A') (A') (A') (A') (A') (A') (A')
                 (A") (A') (A') (A") (A") (A") (A") (A') (A") (A')
                 (A') (A') (A') (A') (A') (A') (A') (A') (A') (A')
                 (A') (A') (A') (A') (A') (A') (A') (A') (A') (A')
                 (A") (A") (A") (A") (A') (A') (A') (A') (A') (A')
                 (A') (A') (A') (A') (A') (A')
 ExpMin= 3.60D-02 ExpMax= 1.06D+05 ExpMxC= 3.62D+03 IAcc=3 IRadAn=         5 AccDes= 0.00D+00
 Harris functional with IExCor= 1009 and IRadAn=       5 diagonalized for initial guess.
 HarFok:  IExCor= 1009 AccDes= 0.00D+00 IRadAn=         5 IDoV= 1 UseB2=F ITyADJ=14
 ICtDFT=  3500011 ScaDFX=  1.000000  1.000000  1.000000  1.000000
 FoFCou: FMM=F IPFlag=           0 FMFlag=      100000 FMFlg1=           0
         NFxFlg=           0 DoJE=T BraDBF=F KetDBF=T FulRan=T
         wScrn=  0.000000 ICntrl=       500 IOpCl=  0 I1Cent=   200000004 NGrid=           0
         NMat0=    1 NMatS0=      1 NMatT0=    0 NMatD0=    1 NMtDS0=    0 NMtDT0=    0
 Petite list used in FoFCou.
 Keep R1 ints in memory in symmetry-blocked form, NReq=864233843.
 Requested convergence on RMS density matrix=1.00D-08 within 128 cycles.
 Requested convergence on MAX density matrix=1.00D-06.
 Requested convergence on             energy=1.00D-06.
 No special actions if energy rises.
 SCF Done:  E(RM062X) =  -2069.95123785     A.U. after   23 cycles
            NFock= 23  Conv=0.47D-08     -V/T= 2.0023
 Calling FoFJK, ICntrl=      2127 FMM=F ISym2X=1 I1Cent= 0 IOpClX= 0 NMat=1 NMatS=1 NMatT=0.
 ***** Axes restored to original set *****
 -------------------------------------------------------------------
 Center     Atomic                   Forces (Hartrees/Bohr)
 Number     Number              X              Y              Z
 -------------------------------------------------------------------
      1        6          -0.152232807   -0.071671944    0.000000000
      2        6           0.024920891    0.042353276   -0.000000000
      3        6          -0.065970001    0.002792494    0.000000000
      4        6           0.152677677    0.097461945   -0.000000000
      5        6          -0.023725599   -0.058456546    0.000000000
      6        6           0.063349833   -0.012657776   -0.000000000
      7       17           0.000801386    0.006813236   -0.000000000
      8       17           0.065290048    0.035917236   -0.000000000
      9        1          -0.001435962   -0.000719301    0.000000000
     10       17           0.000911877   -0.000076110   -0.000000000
     11       17          -0.064587345   -0.041756511    0.000000000
 -------------------------------------------------------------------
 Cartesian Forces:  Max     0.152677677 RMS     0.051512761

 GradGradGradGradGradGradGradGradGradGradGradGradGradGradGradGradGradGrad
 Berny optimization.
 Using GEDIIS/GDIIS optimizer.
 FormGI is forming the generalized inverse of G from B-inverse, IUseBI=4.
 Internal  Forces:  Max     0.076743125 RMS     0.024191143
 Search for a local minimum.
 Step number   5 out of a maximum of   57
 All quantities printed in internal units (Hartrees-Bohrs-Radians)
 Mixed Optimization -- RFO/linear search
 Update second derivatives using D2CorX and points    4    5
 DE= -1.12D-01 DEPred=-7.82D-02 R= 1.43D+00
 TightC=F SS=  1.41D+00  RLast= 6.71D-01 DXNew= 8.4853D-01 2.0131D+00
 Trust test= 1.43D+00 RLast= 6.71D-01 DXMaxT set to 8.49D-01
 ITU=  1  0  0  1  0
 Use linear search instead of GDIIS.
     Eigenvalues ---    0.02238   0.02241   0.02246   0.02249   0.02254
     Eigenvalues ---    0.02262   0.02262   0.02262   0.16032   0.19089
     Eigenvalues ---    0.23683   0.24956   0.25000   0.25000   0.25023
     Eigenvalues ---    0.25386   0.30385   0.30742   0.35369   0.35662
     Eigenvalues ---    0.43863   0.44398   0.47533   0.47684   0.49014
     Eigenvalues ---    1.01324  12.00827
 RFO step:  Lambda=-2.99905690D-02 EMin= 2.23762517D-02
 Quartic linear search produced a step of  0.49221.
 Iteration  1 RMS(Cart)=  0.07147754 RMS(Int)=  0.00314894
 Iteration  2 RMS(Cart)=  0.00449134 RMS(Int)=  0.00033768
 Iteration  3 RMS(Cart)=  0.00000918 RMS(Int)=  0.00033758
 Iteration  4 RMS(Cart)=  0.00000000 RMS(Int)=  0.00033758
 ClnCor:  largest displacement from symmetrization is 9.23D-09 for atom     5.
 Variable       Old X    -DE/DX   Delta X   Delta X   Delta X     New X
                                 (Linear)    (Quad)   (Total)
    R1        2.73064  -0.04536  -0.07669  -0.05429  -0.13140   2.59924
    R2        2.86716  -0.05983  -0.09076  -0.08379  -0.17507   2.69209
    R3        3.03395   0.07451  -0.03851   0.08774   0.04923   3.08319
    R4        2.61022  -0.00210  -0.03282   0.02881  -0.00390   2.60633
    R5        2.05102  -0.00082   0.00358  -0.00727  -0.00369   2.04732
    R6        2.77937  -0.06090  -0.10549  -0.07089  -0.17586   2.60351
    R7        3.38324   0.00013   0.01135  -0.01654  -0.00518   3.37806
    R8        2.84319  -0.05775  -0.09254  -0.07867  -0.17077   2.67242
    R9        3.03000   0.07674  -0.03842   0.08776   0.04933   3.07933
   R10        2.54919   0.00269  -0.00971   0.01871   0.00887   2.55806
   R11        3.40881   0.00683   0.01910   0.00287   0.02196   3.43078
    A1        1.89301   0.02355   0.12419  -0.00531   0.11786   2.01087
    A2        2.15419  -0.01076  -0.05377   0.00082  -0.05244   2.10175
    A3        2.23599  -0.01279  -0.07042   0.00449  -0.06543   2.17056
    A4        2.16483  -0.01443  -0.06330  -0.00792  -0.07161   2.09323
    A5        2.05215   0.00862   0.04917  -0.00847   0.04089   2.09304
    A6        2.06620   0.00580   0.01413   0.01640   0.03072   2.09691
    A7        2.20631  -0.01324  -0.05799  -0.00484  -0.06225   2.14406
    A8        2.01605   0.00507   0.03734  -0.01411   0.02294   2.03899
    A9        2.06082   0.00817   0.02065   0.01895   0.03931   2.10013
   A10        1.95184   0.03028   0.12475   0.01632   0.14201   2.09385
   A11        2.20305  -0.02283  -0.08628  -0.02254  -0.10929   2.09376
   A12        2.12830  -0.00744  -0.03847   0.00623  -0.03272   2.09558
   A13        2.07917  -0.01553  -0.05414  -0.02043  -0.07408   2.00509
   A14        2.27121  -0.01063  -0.07350   0.02218  -0.05194   2.21927
   A15        1.95733   0.00425   0.03202  -0.00730   0.02503   1.98236
   A16        2.05464   0.00637   0.04148  -0.01488   0.02691   2.08155
    D1       -0.00000   0.00000   0.00000  -0.00000   0.00000   0.00000
    D2        3.14159   0.00000   0.00000  -0.00000   0.00000   3.14159
    D3        3.14159   0.00000   0.00000  -0.00000   0.00000   3.14159
    D4       -0.00000  -0.00000   0.00000  -0.00000   0.00000   0.00000
    D5        0.00000  -0.00000   0.00000   0.00000  -0.00000   0.00000
    D6        3.14159  -0.00000   0.00000   0.00000   0.00000   3.14159
    D7        3.14159  -0.00000   0.00000   0.00000   0.00000   3.14159
    D8        0.00000  -0.00000   0.00000   0.00000   0.00000   0.00000
    D9        0.00000  -0.00000   0.00000  -0.00000  -0.00000   0.00000
   D10        3.14159  -0.00000   0.00000  -0.00000   0.00000   3.14159
   D11        3.14159   0.00000   0.00000  -0.00000   0.00000   3.14159
   D12        0.00000  -0.00000   0.00000  -0.00000   0.00000   0.00000
   D13        0.00000   0.00000   0.00000   0.00000   0.00000   0.00000
   D14        3.14159  -0.00000   0.00000  -0.00000   0.00000   3.14159
   D15        3.14159   0.00000   0.00000   0.00000   0.00000   3.14159
   D16       -0.00000   0.00000   0.00000  -0.00000   0.00000   0.00000
   D17        0.00000   0.00000   0.00000  -0.00000  -0.00000   0.00000
   D18        3.14159   0.00000   0.00000   0.00000   0.00000   3.14159
   D19       -0.00000  -0.00000   0.00000  -0.00000   0.00000   0.00000
   D20        3.14159  -0.00000   0.00000  -0.00000   0.00000   3.14159
         Item               Value     Threshold  Converged?
 Maximum Force            0.076743     0.000450     NO 
 RMS     Force            0.024191     0.000300     NO 
 Maximum Displacement     0.232322     0.001800     NO 
 RMS     Displacement     0.071753     0.001200     NO 
 Predicted change in Energy=-3.523496D-02
 GradGradGradGradGradGradGradGradGradGradGradGradGradGradGradGradGradGrad

                          Input orientation:                          
 ---------------------------------------------------------------------
 Center     Atomic      Atomic             Coordinates (Angstroms)
 Number     Number       Type             X           Y           Z
 ---------------------------------------------------------------------
      1          6           0        1.229837    0.692172   -0.000000
      2          6           0        1.197605   -0.682907   -0.000000
      3          6           0       -0.013428   -1.342921    0.000000
      4          6           0       -1.223454   -0.684180    0.000000
      5          6           0       -1.258118    0.729577    0.000000
      6          6           0       -0.044447    1.329093   -0.000000
      7         17           0        0.049813    3.142132   -0.000000
      8         17           0        2.655735    1.485125   -0.000000
      9          1           0        2.123663   -1.245190   -0.000000
     10         17           0        0.041620   -3.129665    0.000000
     11         17           0       -2.613251   -1.534927    0.000000
 ---------------------------------------------------------------------
                    Distance matrix (angstroms):
                    1          2          3          4          5
     1  C    0.000000
     2  C    1.375457   0.000000
     3  C    2.384808   1.379209   0.000000
     4  C    2.813002   2.421059   1.377717   0.000000
     5  C    2.488236   2.832964   2.417540   1.414182   0.000000
     6  C    1.424594   2.364495   2.672194   2.333093   1.353668
     7  Cl   2.719332   3.993539   4.485499   4.032601   2.744286
     8  Cl   1.631551   2.612759   3.888737   4.444546   3.986113
     9  H    2.133611   1.083396   2.139325   3.393807   3.916140
    10  Cl   4.002286   2.706090   1.787592   2.753327   4.072231
    11  Cl   4.441767   3.904941   2.606904   1.629512   2.639009
                    6          7          8          9         10
     6  C    0.000000
     7  Cl   1.815488   0.000000
     8  Cl   2.704686   3.088123   0.000000
     9  H    3.365655   4.852778   2.781676   0.000000
    10  Cl   4.459588   6.271802   5.303761   2.808229   0.000000
    11  Cl   3.847255   5.382081   6.073132   4.745767   3.097019
                   11
    11  Cl   0.000000
 Stoichiometry    C6HCl4(1-)
 Framework group  CS[SG(C6HCl4)]
 Deg. of freedom    19
 Full point group                 CS      NOp   2
 Largest Abelian subgroup         CS      NOp   2
 Largest concise Abelian subgroup C1      NOp   1
                         Standard orientation:                         
 ---------------------------------------------------------------------
 Center     Atomic      Atomic             Coordinates (Angstroms)
 Number     Number       Type             X           Y           Z
 ---------------------------------------------------------------------
      1          6           0       -1.167445    0.751262    0.000000
      2          6           0       -1.185895   -0.624071   -0.000000
      3          6           0        0.000000   -1.328252   -0.000000
      4          6           0        1.233474   -0.714537   -0.000000
      5          6           0        1.320199    0.696983    0.000000
      6          6           0        0.129438    1.340805    0.000000
      7         17           0        0.102037    3.156086    0.000000
      8         17           0       -2.563162    1.596209    0.000000
      9          1           0       -2.132040   -1.151855   -0.000000
     10         17           0       -0.120836   -3.111755   -0.000000
     11         17           0        2.590985   -1.615909   -0.000000
 ---------------------------------------------------------------------
 Rotational constants (GHZ):           1.2277599           0.4742173           0.3420874
 Standard basis: 6-311++G(d,p) (5D, 7F)
 There are   200 symmetry adapted cartesian basis functions of A'  symmetry.
 There are    69 symmetry adapted cartesian basis functions of A"  symmetry.
 There are   190 symmetry adapted basis functions of A'  symmetry.
 There are    69 symmetry adapted basis functions of A"  symmetry.
   259 basis functions,   437 primitive gaussians,   269 cartesian basis functions
    53 alpha electrons       53 beta electrons
       nuclear repulsion energy       819.4680280100 Hartrees.
 NAtoms=   11 NActive=   11 NUniq=   11 SFac= 1.00D+00 NAtFMM=   60 NAOKFM=F Big=F
 Integral buffers will be    131072 words long.
 Raffenetti 2 integral format.
 Two-electron integral symmetry is turned on.
 One-electron integrals computed using PRISM.
 NBasis=   259 RedAO= T EigKep=  1.20D-06  NBF=   190    69
 NBsUse=   258 1.00D-06 EigRej=  8.40D-07 NBFU=   189    69
 Initial guess from the checkpoint file:  "frequency_chks/Pentachlorobenzene_anion_product_Freq.chk"
 B after Tr=    -0.000000    0.000000    0.000000
         Rot=    0.999985   -0.000000   -0.000000    0.005479 Ang=   0.63 deg.
 Initial guess orbital symmetries:
       Occupied  (A') (A') (A') (A') (A') (A') (A') (A') (A') (A')
                 (A') (A') (A') (A') (A') (A") (A') (A') (A") (A')
                 (A') (A") (A') (A') (A") (A') (A') (A') (A') (A')
                 (A') (A') (A') (A') (A') (A') (A') (A') (A") (A')
                 (A') (A") (A') (A") (A') (A") (A') (A') (A") (A')
                 (A") (A") (A')
       Virtual   (A') (A') (A") (A') (A') (A') (A") (A') (A") (A")
                 (A') (A') (A") (A') (A') (A') (A") (A') (A') (A")
                 (A') (A') (A') (A") (A') (A') (A") (A") (A') (A')
                 (A') (A") (A") (A') (A") (A') (A') (A') (A') (A')
                 (A') (A') (A') (A') (A') (A') (A') (A') (A') (A')
                 (A') (A') (A') (A') (A") (A') (A') (A") (A') (A")
                 (A') (A') (A") (A') (A') (A') (A") (A') (A') (A")
                 (A") (A') (A") (A') (A") (A') (A') (A") (A') (A')
                 (A') (A") (A') (A") (A') (A') (A") (A') (A') (A")
                 (A') (A') (A") (A') (A") (A') (A") (A') (A') (A')
                 (A") (A') (A') (A') (A') (A") (A') (A') (A') (A")
                 (A') (A') (A') (A') (A') (A') (A') (A") (A") (A')
                 (A") (A") (A') (A') (A') (A') (A") (A') (A') (A')
                 (A") (A') (A") (A') (A") (A') (A") (A') (A") (A')
                 (A') (A') (A") (A") (A') (A") (A') (A") (A") (A')
                 (A') (A') (A') (A') (A') (A') (A') (A') (A') (A')
                 (A") (A') (A") (A") (A") (A") (A') (A') (A") (A')
                 (A') (A') (A') (A') (A') (A') (A') (A') (A') (A')
                 (A') (A') (A') (A') (A') (A') (A') (A') (A') (A')
                 (A") (A") (A") (A") (A') (A') (A') (A') (A') (A')
                 (A') (A') (A') (A') (A')
 ExpMin= 3.60D-02 ExpMax= 1.06D+05 ExpMxC= 3.62D+03 IAcc=3 IRadAn=         5 AccDes= 0.00D+00
 Harris functional with IExCor= 1009 and IRadAn=       5 diagonalized for initial guess.
 HarFok:  IExCor= 1009 AccDes= 0.00D+00 IRadAn=         5 IDoV= 1 UseB2=F ITyADJ=14
 ICtDFT=  3500011 ScaDFX=  1.000000  1.000000  1.000000  1.000000
 FoFCou: FMM=F IPFlag=           0 FMFlag=      100000 FMFlg1=           0
         NFxFlg=           0 DoJE=T BraDBF=F KetDBF=T FulRan=T
         wScrn=  0.000000 ICntrl=       500 IOpCl=  0 I1Cent=   200000004 NGrid=           0
         NMat0=    1 NMatS0=      1 NMatT0=    0 NMatD0=    1 NMtDS0=    0 NMtDT0=    0
 Petite list used in FoFCou.
 Keep R1 ints in memory in symmetry-blocked form, NReq=864233843.
 Requested convergence on RMS density matrix=1.00D-08 within 128 cycles.
 Requested convergence on MAX density matrix=1.00D-06.
 Requested convergence on             energy=1.00D-06.
 No special actions if energy rises.
 SCF Done:  E(RM062X) =  -2069.98670671     A.U. after   19 cycles
            NFock= 19  Conv=0.75D-08     -V/T= 2.0020
 Calling FoFJK, ICntrl=      2127 FMM=F ISym2X=1 I1Cent= 0 IOpClX= 0 NMat=1 NMatS=1 NMatT=0.
 ***** Axes restored to original set *****
 -------------------------------------------------------------------
 Center     Atomic                   Forces (Hartrees/Bohr)
 Number     Number              X              Y              Z
 -------------------------------------------------------------------
      1        6          -0.075001507   -0.020371127    0.000000000
      2        6           0.014588330   -0.008004103   -0.000000000
      3        6          -0.001387985   -0.018083430    0.000000000
      4        6           0.057404543    0.056233878   -0.000000000
      5        6          -0.008219955   -0.010092398    0.000000000
      6        6           0.020805452    0.004127665   -0.000000000
      7       17          -0.003801508    0.001724265    0.000000000
      8       17           0.061289326    0.031432758   -0.000000000
      9        1          -0.001022670   -0.000285037    0.000000000
     10       17           0.004008226    0.002845576   -0.000000000
     11       17          -0.068662253   -0.039528049    0.000000000
 -------------------------------------------------------------------
 Cartesian Forces:  Max     0.075001507 RMS     0.027406578

 GradGradGradGradGradGradGradGradGradGradGradGradGradGradGradGradGradGrad
 Berny optimization.
 Using GEDIIS/GDIIS optimizer.
 FormGI is forming the generalized inverse of G from B-inverse, IUseBI=4.
 Internal  Forces:  Max     0.079198007 RMS     0.015972179
 Search for a local minimum.
 Step number   6 out of a maximum of   57
 All quantities printed in internal units (Hartrees-Bohrs-Radians)
 Mixed Optimization -- RFO/linear search
 Update second derivatives using D2CorX and points    5    6
 DE= -3.55D-02 DEPred=-3.52D-02 R= 1.01D+00
 TightC=F SS=  1.41D+00  RLast= 4.37D-01 DXNew= 1.4270D+00 1.3104D+00
 Trust test= 1.01D+00 RLast= 4.37D-01 DXMaxT set to 1.31D+00
 ITU=  1  1  0  0  1  0
 Use linear search instead of GDIIS.
     Eigenvalues ---    0.02237   0.02241   0.02246   0.02249   0.02253
     Eigenvalues ---    0.02262   0.02262   0.02262   0.16042   0.20384
     Eigenvalues ---    0.23685   0.24808   0.25000   0.25001   0.25261
     Eigenvalues ---    0.26466   0.30238   0.30584   0.35648   0.40780
     Eigenvalues ---    0.43659   0.44687   0.47509   0.48352   0.50240
     Eigenvalues ---    0.80364  12.00885
 RFO step:  Lambda=-1.71426483D-02 EMin= 2.23748975D-02
 Quartic linear search produced a step of  0.09871.
 Iteration  1 RMS(Cart)=  0.02523913 RMS(Int)=  0.00028668
 Iteration  2 RMS(Cart)=  0.00043149 RMS(Int)=  0.00006005
 Iteration  3 RMS(Cart)=  0.00000011 RMS(Int)=  0.00006005
 ClnCor:  largest displacement from symmetrization is 2.80D-13 for atom     8.
 Variable       Old X    -DE/DX   Delta X   Delta X   Delta X     New X
                                 (Linear)    (Quad)   (Total)
    R1        2.59924   0.01202  -0.01297   0.01989   0.00694   2.60618
    R2        2.69209  -0.00728  -0.01728  -0.01136  -0.02871   2.66338
    R3        3.08319   0.06884   0.00486   0.09889   0.10375   3.18694
    R4        2.60633   0.00933  -0.00038   0.01660   0.01631   2.62264
    R5        2.04732  -0.00073  -0.00036  -0.00156  -0.00193   2.04539
    R6        2.60351   0.01523  -0.01736   0.02707   0.00978   2.61329
    R7        3.37806  -0.00272  -0.00051  -0.00073  -0.00124   3.37682
    R8        2.67242  -0.00533  -0.01686  -0.01201  -0.02888   2.64354
    R9        3.07933   0.07920   0.00487   0.09948   0.10435   3.18368
   R10        2.55806   0.00959   0.00088   0.01238   0.01316   2.57122
   R11        3.43078   0.00153   0.00217   0.01925   0.02142   3.45220
    A1        2.01087   0.00421   0.01163   0.03000   0.04160   2.05247
    A2        2.10175  -0.00569  -0.00518  -0.03531  -0.04047   2.06129
    A3        2.17056   0.00148  -0.00646   0.00531  -0.00113   2.16943
    A4        2.09323  -0.00208  -0.00707  -0.01337  -0.02031   2.07292
    A5        2.09304   0.00184   0.00404   0.01664   0.02062   2.11366
    A6        2.09691   0.00024   0.00303  -0.00328  -0.00031   2.09661
    A7        2.14406  -0.00492  -0.00614  -0.02239  -0.02836   2.11570
    A8        2.03899  -0.00444   0.00226  -0.01768  -0.01551   2.02349
    A9        2.10013   0.00936   0.00388   0.04008   0.04387   2.14400
   A10        2.09385   0.00079   0.01402   0.02315   0.03722   2.13107
   A11        2.09376   0.00290  -0.01079   0.00326  -0.00755   2.08621
   A12        2.09558  -0.00369  -0.00323  -0.02641  -0.02967   2.06591
   A13        2.00509   0.00446  -0.00731   0.00188  -0.00560   1.99950
   A14        2.21927  -0.00245  -0.00513  -0.01927  -0.02455   2.19472
   A15        1.98236   0.00788   0.00247   0.03170   0.03424   2.01661
   A16        2.08155  -0.00543   0.00266  -0.01242  -0.00969   2.07186
    D1        0.00000  -0.00000   0.00000   0.00000   0.00000   0.00000
    D2        3.14159   0.00000   0.00000   0.00000   0.00000   3.14159
    D3        3.14159  -0.00000   0.00000  -0.00000   0.00000   3.14159
    D4       -0.00000  -0.00000   0.00000  -0.00000   0.00000   0.00000
    D5       -0.00000   0.00000   0.00000  -0.00000   0.00000   0.00000
    D6        3.14159  -0.00000   0.00000  -0.00000   0.00000   3.14159
    D7        3.14159   0.00000   0.00000   0.00000   0.00000   3.14159
    D8       -0.00000  -0.00000   0.00000  -0.00000   0.00000   0.00000
    D9       -0.00000   0.00000   0.00000   0.00000   0.00000   0.00000
   D10        3.14159   0.00000   0.00000   0.00000   0.00000   3.14159
   D11        3.14159   0.00000   0.00000  -0.00000   0.00000   3.14159
   D12        0.00000   0.00000   0.00000  -0.00000   0.00000   0.00000
   D13        0.00000   0.00000   0.00000  -0.00000   0.00000   0.00000
   D14        3.14159  -0.00000   0.00000  -0.00000   0.00000   3.14159
   D15        3.14159   0.00000   0.00000  -0.00000   0.00000   3.14159
   D16       -0.00000  -0.00000   0.00000  -0.00000   0.00000   0.00000
   D17       -0.00000  -0.00000   0.00000   0.00000   0.00000   0.00000
   D18        3.14159   0.00000   0.00000   0.00000   0.00000   3.14159
   D19        0.00000   0.00000   0.00000   0.00000   0.00000   0.00000
   D20        3.14159   0.00000   0.00000   0.00000   0.00000   3.14159
         Item               Value     Threshold  Converged?
 Maximum Force            0.079198     0.000450     NO 
 RMS     Force            0.015972     0.000300     NO 
 Maximum Displacement     0.092015     0.001800     NO 
 RMS     Displacement     0.025266     0.001200     NO 
 Predicted change in Energy=-9.350513D-03
 GradGradGradGradGradGradGradGradGradGradGradGradGradGradGradGradGradGrad

                          Input orientation:                          
 ---------------------------------------------------------------------
 Center     Atomic      Atomic             Coordinates (Angstroms)
 Number     Number       Type             X           Y           Z
 ---------------------------------------------------------------------
      1          6           0        1.205234    0.686038   -0.000000
      2          6           0        1.204654   -0.693094   -0.000000
      3          6           0       -0.012153   -1.360535    0.000000
      4          6           0       -1.209363   -0.668378    0.000000
      5          6           0       -1.259828    0.729610    0.000000
      6          6           0       -0.043533    1.339482   -0.000000
      7         17           0        0.022731    3.165104   -0.000000
      8         17           0        2.693193    1.479833   -0.000000
      9          1           0        2.131187   -1.252626   -0.000000
     10         17           0        0.075396   -3.145325    0.000000
     11         17           0       -2.661943   -1.521799    0.000000
 ---------------------------------------------------------------------
                    Distance matrix (angstroms):
                    1          2          3          4          5
     1  C    0.000000
     2  C    1.379131   0.000000
     3  C    2.381279   1.387839   0.000000
     4  C    2.768524   2.414144   1.382893   0.000000
     5  C    2.465447   2.845656   2.434214   1.398899   0.000000
     6  C    1.409400   2.385233   2.700199   2.321780   1.360631
     7  Cl   2.746650   4.035175   4.525774   4.026617   2.752561
     8  Cl   1.686455   2.633886   3.922574   4.454745   4.023581
     9  H    2.148442   1.082376   2.146055   3.391256   3.927880
    10  Cl   3.994481   2.699753   1.786937   2.790318   4.098530
    11  Cl   4.453044   3.954406   2.654693   1.684730   2.652315
                    6          7          8          9         10
     6  C    0.000000
     7  Cl   1.826824   0.000000
     8  Cl   2.740322   3.157769   0.000000
     9  H    3.383553   4.895092   2.789656   0.000000
    10  Cl   4.486384   6.310650   5.314598   2.794385   0.000000
    11  Cl   3.878531   5.401347   6.138996   4.800682   3.182588
                   11
    11  Cl   0.000000
 Stoichiometry    C6HCl4(1-)
 Framework group  CS[SG(C6HCl4)]
 Deg. of freedom    19
 Full point group                 CS      NOp   2
 Largest Abelian subgroup         CS      NOp   2
 Largest concise Abelian subgroup C1      NOp   1
                         Standard orientation:                         
 ---------------------------------------------------------------------
 Center     Atomic      Atomic             Coordinates (Angstroms)
 Number     Number       Type             X           Y           Z
 ---------------------------------------------------------------------
      1          6           0       -1.145545    0.739915   -0.000000
      2          6           0       -1.192883   -0.638404   -0.000000
      3          6           0        0.000000   -1.347719   -0.000000
      4          6           0        1.220536   -0.697577    0.000000
      5          6           0        1.319543    0.697814    0.000000
      6          6           0        0.125172    1.349577    0.000000
      7         17           0        0.122378    3.176400    0.000000
      8         17           0       -2.605025    1.584930   -0.000000
      9          1           0       -2.138296   -1.165406   -0.000000
     10         17           0       -0.149508   -3.128390   -0.000000
     11         17           0        2.642587   -1.600953    0.000000
 ---------------------------------------------------------------------
 Rotational constants (GHZ):           1.1779513           0.4719544           0.3369521
 Standard basis: 6-311++G(d,p) (5D, 7F)
 There are   200 symmetry adapted cartesian basis functions of A'  symmetry.
 There are    69 symmetry adapted cartesian basis functions of A"  symmetry.
 There are   190 symmetry adapted basis functions of A'  symmetry.
 There are    69 symmetry adapted basis functions of A"  symmetry.
   259 basis functions,   437 primitive gaussians,   269 cartesian basis functions
    53 alpha electrons       53 beta electrons
       nuclear repulsion energy       811.8338489743 Hartrees.
 NAtoms=   11 NActive=   11 NUniq=   11 SFac= 1.00D+00 NAtFMM=   60 NAOKFM=F Big=F
 Integral buffers will be    131072 words long.
 Raffenetti 2 integral format.
 Two-electron integral symmetry is turned on.
 One-electron integrals computed using PRISM.
 NBasis=   259 RedAO= T EigKep=  1.26D-06  NBF=   190    69
 NBsUse=   258 1.00D-06 EigRej=  8.52D-07 NBFU=   189    69
 Initial guess from the checkpoint file:  "frequency_chks/Pentachlorobenzene_anion_product_Freq.chk"
 B after Tr=     0.000000    0.000000   -0.000000
         Rot=    1.000000   -0.000000   -0.000000   -0.000936 Ang=  -0.11 deg.
 Initial guess orbital symmetries:
       Occupied  (A') (A') (A') (A') (A') (A') (A') (A') (A') (A')
                 (A') (A') (A') (A') (A') (A") (A') (A') (A") (A')
                 (A') (A") (A') (A') (A") (A') (A') (A') (A') (A')
                 (A') (A') (A') (A') (A') (A') (A') (A') (A") (A')
                 (A') (A") (A') (A") (A') (A") (A') (A") (A') (A')
                 (A") (A") (A')
       Virtual   (A') (A') (A') (A") (A') (A') (A") (A') (A") (A")
                 (A') (A') (A") (A') (A') (A") (A') (A') (A') (A")
                 (A') (A') (A') (A") (A') (A") (A") (A') (A') (A')
                 (A') (A") (A') (A") (A') (A') (A') (A") (A') (A')
                 (A') (A') (A') (A') (A') (A') (A') (A') (A') (A')
                 (A') (A') (A') (A") (A") (A') (A') (A') (A") (A')
                 (A') (A") (A') (A') (A') (A") (A') (A') (A") (A")
                 (A') (A") (A") (A') (A') (A') (A") (A') (A') (A')
                 (A") (A') (A') (A") (A') (A') (A") (A') (A') (A")
                 (A') (A") (A") (A') (A") (A') (A') (A') (A') (A")
                 (A') (A') (A') (A') (A") (A') (A') (A') (A") (A')
                 (A') (A') (A') (A') (A') (A") (A') (A") (A") (A')
                 (A") (A') (A') (A') (A') (A") (A') (A') (A') (A")
                 (A') (A") (A') (A") (A") (A') (A') (A") (A') (A')
                 (A') (A") (A") (A') (A") (A") (A') (A") (A') (A')
                 (A') (A') (A') (A') (A') (A') (A') (A') (A") (A')
                 (A') (A") (A") (A") (A") (A') (A") (A') (A') (A')
                 (A') (A') (A') (A') (A') (A') (A') (A') (A') (A')
                 (A') (A') (A') (A') (A') (A') (A') (A') (A') (A")
                 (A") (A") (A") (A') (A') (A') (A') (A') (A') (A')
                 (A') (A') (A') (A') (A')
 ExpMin= 3.60D-02 ExpMax= 1.06D+05 ExpMxC= 3.62D+03 IAcc=3 IRadAn=         5 AccDes= 0.00D+00
 Harris functional with IExCor= 1009 and IRadAn=       5 diagonalized for initial guess.
 HarFok:  IExCor= 1009 AccDes= 0.00D+00 IRadAn=         5 IDoV= 1 UseB2=F ITyADJ=14
 ICtDFT=  3500011 ScaDFX=  1.000000  1.000000  1.000000  1.000000
 FoFCou: FMM=F IPFlag=           0 FMFlag=      100000 FMFlg1=           0
         NFxFlg=           0 DoJE=T BraDBF=F KetDBF=T FulRan=T
         wScrn=  0.000000 ICntrl=       500 IOpCl=  0 I1Cent=   200000004 NGrid=           0
         NMat0=    1 NMatS0=      1 NMatT0=    0 NMatD0=    1 NMtDS0=    0 NMtDT0=    0
 Petite list used in FoFCou.
 Keep R1 ints in memory in symmetry-blocked form, NReq=864233843.
 Requested convergence on RMS density matrix=1.00D-08 within 128 cycles.
 Requested convergence on MAX density matrix=1.00D-06.
 Requested convergence on             energy=1.00D-06.
 No special actions if energy rises.
 SCF Done:  E(RM062X) =  -2069.99969342     A.U. after   16 cycles
            NFock= 16  Conv=0.88D-08     -V/T= 2.0022
 Calling FoFJK, ICntrl=      2127 FMM=F ISym2X=1 I1Cent= 0 IOpClX= 0 NMat=1 NMatS=1 NMatT=0.
 ***** Axes restored to original set *****
 -------------------------------------------------------------------
 Center     Atomic                   Forces (Hartrees/Bohr)
 Number     Number              X              Y              Z
 -------------------------------------------------------------------
      1        6          -0.034500671   -0.007010043    0.000000000
      2        6           0.001573402   -0.007015181    0.000000000
      3        6           0.005051262   -0.011052897    0.000000000
      4        6           0.027959114    0.029509143   -0.000000000
      5        6          -0.001493710   -0.004131046    0.000000000
      6        6           0.010411757    0.006079670   -0.000000000
      7       17          -0.000591140   -0.005170542    0.000000000
      8       17           0.031136244    0.017232120   -0.000000000
      9        1          -0.000394137    0.001051094   -0.000000000
     10       17          -0.001015713    0.005659175   -0.000000000
     11       17          -0.038136408   -0.025151493    0.000000000
 -------------------------------------------------------------------
 Cartesian Forces:  Max     0.038136408 RMS     0.014217754

 GradGradGradGradGradGradGradGradGradGradGradGradGradGradGradGradGradGrad
 Berny optimization.
 Using GEDIIS/GDIIS optimizer.
 FormGI is forming the generalized inverse of G from B-inverse, IUseBI=4.
 Internal  Forces:  Max     0.045622428 RMS     0.008810276
 Search for a local minimum.
 Step number   7 out of a maximum of   57
 All quantities printed in internal units (Hartrees-Bohrs-Radians)
 Mixed Optimization -- RFO/linear search
 Update second derivatives using D2CorX and points    5    6    7
 DE= -1.30D-02 DEPred=-9.35D-03 R= 1.39D+00
 TightC=F SS=  1.41D+00  RLast= 1.89D-01 DXNew= 2.2039D+00 5.6730D-01
 Trust test= 1.39D+00 RLast= 1.89D-01 DXMaxT set to 1.31D+00
 ITU=  1  1  1  0  0  1  0
 Use linear search instead of GDIIS.
     Eigenvalues ---    0.02237   0.02241   0.02246   0.02249   0.02253
     Eigenvalues ---    0.02262   0.02262   0.02262   0.16068   0.19225
     Eigenvalues ---    0.23669   0.24831   0.25001   0.25152   0.25550
     Eigenvalues ---    0.27237   0.30374   0.32073   0.35667   0.40178
     Eigenvalues ---    0.43497   0.44632   0.45905   0.47740   0.48565
     Eigenvalues ---    0.52137  12.00685
 RFO step:  Lambda=-3.03090896D-03 EMin= 2.23745659D-02
 Quartic linear search produced a step of  1.12351.
 Iteration  1 RMS(Cart)=  0.02520808 RMS(Int)=  0.00035805
 Iteration  2 RMS(Cart)=  0.00063836 RMS(Int)=  0.00012872
 Iteration  3 RMS(Cart)=  0.00000030 RMS(Int)=  0.00012872
 ClnCor:  largest displacement from symmetrization is 2.75D-11 for atom    10.
 Variable       Old X    -DE/DX   Delta X   Delta X   Delta X     New X
                                 (Linear)    (Quad)   (Total)
    R1        2.60618   0.00790   0.00780   0.00688   0.01480   2.62098
    R2        2.66338  -0.00506  -0.03226  -0.01327  -0.04560   2.61778
    R3        3.18694   0.03558   0.11657   0.02567   0.14224   3.32918
    R4        2.62264   0.00295   0.01832  -0.00611   0.01241   2.63505
    R5        2.04539  -0.00088  -0.00216  -0.00333  -0.00549   2.03990
    R6        2.61329   0.00722   0.01099  -0.00302   0.00804   2.62132
    R7        3.37682  -0.00570  -0.00139  -0.02814  -0.02953   3.34729
    R8        2.64354  -0.00103  -0.03245  -0.00087  -0.03344   2.61010
    R9        3.18368   0.04562   0.11724   0.02653   0.14377   3.32745
   R10        2.57122   0.00622   0.01478   0.00777   0.02236   2.59358
   R11        3.45220  -0.00519   0.02407  -0.03113  -0.00706   3.44513
    A1        2.05247  -0.00059   0.04674  -0.00249   0.04433   2.09679
    A2        2.06129   0.00118  -0.04546   0.01582  -0.02968   2.03160
    A3        2.16943  -0.00058  -0.00127  -0.01333  -0.01464   2.15479
    A4        2.07292   0.00028  -0.02282   0.00010  -0.02236   2.05057
    A5        2.11366  -0.00086   0.02316  -0.00777   0.01522   2.12887
    A6        2.09661   0.00057  -0.00035   0.00767   0.00714   2.10375
    A7        2.11570  -0.00040  -0.03187   0.00364  -0.02793   2.08777
    A8        2.02349   0.00144  -0.01742   0.02733   0.00976   2.03325
    A9        2.14400  -0.00104   0.04929  -0.03097   0.01817   2.16217
   A10        2.13107  -0.00240   0.04182  -0.00308   0.03872   2.16979
   A11        2.08621  -0.00257  -0.00849  -0.04033  -0.04880   2.03741
   A12        2.06591   0.00498  -0.03334   0.04341   0.01008   2.07599
   A13        1.99950   0.00267  -0.00629  -0.00085  -0.00762   1.99188
   A14        2.19472   0.00044  -0.02759   0.00269  -0.02514   2.16958
   A15        2.01661   0.00048   0.03847  -0.01697   0.02162   2.03823
   A16        2.07186  -0.00092  -0.01089   0.01429   0.00352   2.07538
    D1       -0.00000   0.00000   0.00000   0.00000   0.00000   0.00000
    D2        3.14159  -0.00000   0.00000   0.00000   0.00000   3.14159
    D3        3.14159   0.00000   0.00000   0.00000   0.00000   3.14159
    D4        0.00000   0.00000   0.00000   0.00000   0.00000   0.00000
    D5        0.00000  -0.00000   0.00000  -0.00000   0.00000   0.00000
    D6        3.14159   0.00000   0.00000  -0.00000   0.00000   3.14159
    D7        3.14159  -0.00000   0.00000  -0.00000   0.00000   3.14159
    D8       -0.00000  -0.00000   0.00000  -0.00000   0.00000   0.00000
    D9       -0.00000  -0.00000   0.00000  -0.00000   0.00000   0.00000
   D10        3.14159  -0.00000   0.00000  -0.00000   0.00000   3.14159
   D11        3.14159   0.00000   0.00000   0.00000   0.00000   3.14159
   D12       -0.00000  -0.00000   0.00000  -0.00000   0.00000   0.00000
   D13       -0.00000   0.00000   0.00000  -0.00000   0.00000   0.00000
   D14        3.14159  -0.00000   0.00000  -0.00000   0.00000   3.14159
   D15        3.14159   0.00000   0.00000  -0.00000   0.00000   3.14159
   D16        0.00000  -0.00000   0.00000  -0.00000  -0.00000   0.00000
   D17        0.00000   0.00000   0.00000   0.00000   0.00000   0.00000
   D18        3.14159   0.00000   0.00000   0.00000   0.00000   3.14159
   D19       -0.00000   0.00000   0.00000  -0.00000   0.00000   0.00000
   D20        3.14159  -0.00000   0.00000  -0.00000   0.00000   3.14159
         Item               Value     Threshold  Converged?
 Maximum Force            0.045622     0.000450     NO 
 RMS     Force            0.008810     0.000300     NO 
 Maximum Displacement     0.094612     0.001800     NO 
 RMS     Displacement     0.025260     0.001200     NO 
 Predicted change in Energy=-4.958544D-03
 GradGradGradGradGradGradGradGradGradGradGradGradGradGradGradGradGradGrad

                          Input orientation:                          
 ---------------------------------------------------------------------
 Center     Atomic      Atomic             Coordinates (Angstroms)
 Number     Number       Type             X           Y           Z
 ---------------------------------------------------------------------
      1          6           0        1.176902    0.684735   -0.000000
      2          6           0        1.208565   -0.701869   -0.000000
      3          6           0       -0.013400   -1.373563    0.000000
      4          6           0       -1.195086   -0.647073    0.000000
      5          6           0       -1.261034    0.732555    0.000000
      6          6           0       -0.036676    1.352713   -0.000000
      7         17           0        0.028457    3.174636   -0.000000
      8         17           0        2.736572    1.503943   -0.000000
      9          1           0        2.137064   -1.252456   -0.000000
     10         17           0        0.057700   -3.143445    0.000000
     11         17           0       -2.693488   -1.571866    0.000000
 ---------------------------------------------------------------------
                    Distance matrix (angstroms):
                    1          2          3          4          5
     1  C    0.000000
     2  C    1.386965   0.000000
     3  C    2.377690   1.394407   0.000000
     4  C    2.720301   2.404275   1.387145   0.000000
     5  C    2.438405   2.855957   2.447923   1.381204   0.000000
     6  C    1.385268   2.402485   2.726376   2.311073   1.372461
     7  Cl   2.741994   4.052153   4.548392   4.012794   2.761620
     8  Cl   1.761724   2.683358   3.980250   4.481608   4.071351
     9  H    2.162087   1.079471   2.153871   3.386696   3.935396
    10  Cl   3.988431   2.699219   1.771309   2.793089   4.094196
    11  Cl   4.480197   3.997864   2.687415   1.760810   2.713353
                    6          7          8          9         10
     6  C    0.000000
     7  Cl   1.823086   0.000000
     8  Cl   2.777369   3.181997   0.000000
     9  H    3.392942   4.903607   2.820841   0.000000
    10  Cl   4.497149   6.318149   5.364194   2.810622   0.000000
    11  Cl   3.951179   5.471587   6.240686   4.841101   3.168422
                   11
    11  Cl   0.000000
 Stoichiometry    C6HCl4(1-)
 Framework group  CS[SG(C6HCl4)]
 Deg. of freedom    19
 Full point group                 CS      NOp   2
 Largest Abelian subgroup         CS      NOp   2
 Largest concise Abelian subgroup C1      NOp   1
                         Standard orientation:                         
 ---------------------------------------------------------------------
 Center     Atomic      Atomic             Coordinates (Angstroms)
 Number     Number       Type             X           Y           Z
 ---------------------------------------------------------------------
      1          6           0        0.000000    1.339856    0.000000
      2          6           0       -1.198926    0.642539    0.000000
      3          6           0       -1.133380   -0.750326    0.000000
      4          6           0        0.103387   -1.378480   -0.000000
      5          6           0        1.314274   -0.714044   -0.000000
      6          6           0        1.203532    0.653942   -0.000000
      7         17           0        2.723100    1.661195   -0.000000
      8         17           0       -0.116165    3.097746    0.000000
      9          1           0       -2.153440    1.146682    0.000000
     10         17           0       -2.679735   -1.614226    0.000000
     11         17           0        0.097513   -3.139280   -0.000000
 ---------------------------------------------------------------------
 Rotational constants (GHZ):           1.1737923           0.4625281           0.3317883
 Standard basis: 6-311++G(d,p) (5D, 7F)
 There are   200 symmetry adapted cartesian basis functions of A'  symmetry.
 There are    69 symmetry adapted cartesian basis functions of A"  symmetry.
 There are   190 symmetry adapted basis functions of A'  symmetry.
 There are    69 symmetry adapted basis functions of A"  symmetry.
   259 basis functions,   437 primitive gaussians,   269 cartesian basis functions
    53 alpha electrons       53 beta electrons
       nuclear repulsion energy       805.9469747802 Hartrees.
 NAtoms=   11 NActive=   11 NUniq=   11 SFac= 1.00D+00 NAtFMM=   60 NAOKFM=F Big=F
 Integral buffers will be    131072 words long.
 Raffenetti 2 integral format.
 Two-electron integral symmetry is turned on.
 One-electron integrals computed using PRISM.
 NBasis=   259 RedAO= T EigKep=  1.22D-06  NBF=   190    69
 NBsUse=   258 1.00D-06 EigRej=  9.11D-07 NBFU=   189    69
 Initial guess from the checkpoint file:  "frequency_chks/Pentachlorobenzene_anion_product_Freq.chk"
 B after Tr=     0.000000   -0.000000   -0.000000
         Rot=    0.880784   -0.000000   -0.000000    0.473519 Ang=  56.53 deg.
 Initial guess orbital symmetries:
       Occupied  (A') (A') (A') (A') (A') (A') (A') (A') (A') (A')
                 (A') (A') (A') (A') (A') (A") (A') (A') (A") (A')
                 (A') (A") (A') (A') (A") (A') (A') (A') (A') (A')
                 (A') (A') (A') (A') (A') (A') (A') (A') (A") (A')
                 (A') (A") (A') (A") (A') (A") (A') (A") (A') (A')
                 (A") (A") (A')
       Virtual   (A') (A') (A') (A") (A') (A') (A") (A') (A") (A")
                 (A') (A') (A") (A') (A') (A") (A') (A') (A') (A")
                 (A') (A') (A') (A") (A') (A") (A') (A") (A') (A')
                 (A') (A") (A') (A") (A') (A') (A') (A") (A') (A')
                 (A') (A') (A') (A') (A') (A') (A') (A') (A') (A')
                 (A') (A') (A') (A") (A') (A") (A') (A') (A') (A")
                 (A') (A') (A") (A') (A') (A") (A') (A') (A") (A")
                 (A') (A") (A") (A') (A') (A') (A") (A') (A') (A')
                 (A") (A') (A') (A") (A') (A') (A') (A") (A') (A')
                 (A") (A") (A") (A') (A') (A") (A') (A') (A') (A")
                 (A') (A') (A') (A') (A') (A") (A') (A') (A") (A')
                 (A') (A') (A') (A') (A') (A") (A") (A') (A") (A')
                 (A") (A') (A') (A') (A') (A") (A') (A') (A') (A")
                 (A') (A") (A') (A") (A") (A') (A') (A") (A') (A')
                 (A') (A") (A") (A') (A") (A') (A") (A") (A') (A')
                 (A') (A') (A') (A') (A') (A') (A') (A') (A") (A')
                 (A') (A") (A") (A") (A") (A') (A") (A') (A') (A')
                 (A') (A') (A') (A') (A') (A') (A') (A') (A') (A')
                 (A') (A') (A') (A') (A') (A') (A') (A') (A') (A")
                 (A") (A") (A") (A') (A') (A') (A') (A') (A') (A')
                 (A') (A') (A') (A') (A')
 ExpMin= 3.60D-02 ExpMax= 1.06D+05 ExpMxC= 3.62D+03 IAcc=3 IRadAn=         5 AccDes= 0.00D+00
 Harris functional with IExCor= 1009 and IRadAn=       5 diagonalized for initial guess.
 HarFok:  IExCor= 1009 AccDes= 0.00D+00 IRadAn=         5 IDoV= 1 UseB2=F ITyADJ=14
 ICtDFT=  3500011 ScaDFX=  1.000000  1.000000  1.000000  1.000000
 FoFCou: FMM=F IPFlag=           0 FMFlag=      100000 FMFlg1=           0
         NFxFlg=           0 DoJE=T BraDBF=F KetDBF=T FulRan=T
         wScrn=  0.000000 ICntrl=       500 IOpCl=  0 I1Cent=   200000004 NGrid=           0
         NMat0=    1 NMatS0=      1 NMatT0=    0 NMatD0=    1 NMtDS0=    0 NMtDT0=    0
 Petite list used in FoFCou.
 Keep R1 ints in memory in symmetry-blocked form, NReq=864233843.
 Requested convergence on RMS density matrix=1.00D-08 within 128 cycles.
 Requested convergence on MAX density matrix=1.00D-06.
 Requested convergence on             energy=1.00D-06.
 No special actions if energy rises.
 SCF Done:  E(RM062X) =  -2070.00617876     A.U. after   20 cycles
            NFock= 20  Conv=0.70D-08     -V/T= 2.0023
 Calling FoFJK, ICntrl=      2127 FMM=F ISym2X=1 I1Cent= 0 IOpClX= 0 NMat=1 NMatS=1 NMatT=0.
 ***** Axes restored to original set *****
 -------------------------------------------------------------------
 Center     Atomic                   Forces (Hartrees/Bohr)
 Number     Number              X              Y              Z
 -------------------------------------------------------------------
      1        6           0.009320398   -0.001712140   -0.000000000
      2        6          -0.008369419   -0.002543032    0.000000000
      3        6           0.011035153   -0.001560987   -0.000000000
      4        6           0.001633758    0.005138768   -0.000000000
      5        6           0.002414693    0.000124651   -0.000000000
      6        6          -0.005972286    0.008748265   -0.000000000
      7       17          -0.000446492   -0.007144008    0.000000000
      8       17           0.001625838    0.001116585   -0.000000000
      9        1           0.001133466    0.000979714   -0.000000000
     10       17          -0.000547559    0.002919428   -0.000000000
     11       17          -0.011827550   -0.006067243    0.000000000
 -------------------------------------------------------------------
 Cartesian Forces:  Max     0.011827550 RMS     0.004541211

 GradGradGradGradGradGradGradGradGradGradGradGradGradGradGradGradGradGrad
 Berny optimization.
 Using GEDIIS/GDIIS optimizer.
 FormGI is forming the generalized inverse of G from B-inverse, IUseBI=4.
 Internal  Forces:  Max     0.013250928 RMS     0.002947343
 Search for a local minimum.
 Step number   8 out of a maximum of   57
 All quantities printed in internal units (Hartrees-Bohrs-Radians)
 Mixed Optimization -- RFO/linear search
 Update second derivatives using D2CorX and points    6    7    8
 DE= -6.49D-03 DEPred=-4.96D-03 R= 1.31D+00
 TightC=F SS=  1.41D+00  RLast= 2.37D-01 DXNew= 2.2039D+00 7.1113D-01
 Trust test= 1.31D+00 RLast= 2.37D-01 DXMaxT set to 1.31D+00
 ITU=  1  1  1  1  0  0  1  0
 Use linear search instead of GDIIS.
     Eigenvalues ---    0.02237   0.02241   0.02246   0.02249   0.02252
     Eigenvalues ---    0.02262   0.02262   0.02262   0.16007   0.17046
     Eigenvalues ---    0.23664   0.24800   0.25003   0.25176   0.25370
     Eigenvalues ---    0.27291   0.30443   0.32577   0.35646   0.36975
     Eigenvalues ---    0.41536   0.43490   0.44856   0.48084   0.48984
     Eigenvalues ---    0.51368  12.00544
 RFO step:  Lambda=-8.10224804D-04 EMin= 2.23735654D-02
 Quartic linear search produced a step of  0.13871.
 Iteration  1 RMS(Cart)=  0.01002605 RMS(Int)=  0.00002240
 Iteration  2 RMS(Cart)=  0.00003058 RMS(Int)=  0.00000893
 Iteration  3 RMS(Cart)=  0.00000000 RMS(Int)=  0.00000893
 ClnCor:  largest displacement from symmetrization is 8.53D-10 for atom     9.
 Variable       Old X    -DE/DX   Delta X   Delta X   Delta X     New X
                                 (Linear)    (Quad)   (Total)
    R1        2.62098   0.00039   0.00205  -0.00131   0.00075   2.62174
    R2        2.61778   0.00625  -0.00633   0.01834   0.01201   2.62979
    R3        3.32918   0.00196   0.01973   0.00802   0.02775   3.35693
    R4        2.63505  -0.00299   0.00172  -0.00919  -0.00745   2.62760
    R5        2.03990   0.00048  -0.00076   0.00197   0.00121   2.04111
    R6        2.62132   0.00637   0.00111   0.01330   0.01442   2.63574
    R7        3.34729  -0.00294  -0.00410  -0.00695  -0.01104   3.33625
    R8        2.61010   0.00052  -0.00464   0.00278  -0.00187   2.60823
    R9        3.32745   0.01325   0.01994   0.00893   0.02887   3.35632
   R10        2.59358   0.00034   0.00310  -0.00172   0.00137   2.59495
   R11        3.44513  -0.00715  -0.00098  -0.02154  -0.02252   3.42261
    A1        2.09679  -0.00361   0.00615  -0.01214  -0.00598   2.09081
    A2        2.03160   0.00218  -0.00412   0.00601   0.00189   2.03349
    A3        2.15479   0.00143  -0.00203   0.00612   0.00409   2.15888
    A4        2.05057   0.00291  -0.00310   0.01063   0.00755   2.05812
    A5        2.12887  -0.00290   0.00211  -0.01320  -0.01110   2.11777
    A6        2.10375  -0.00001   0.00099   0.00257   0.00355   2.10729
    A7        2.08777   0.00171  -0.00387   0.00434   0.00049   2.08826
    A8        2.03325  -0.00012   0.00135   0.00007   0.00141   2.03466
    A9        2.16217  -0.00158   0.00252  -0.00441  -0.00190   2.16027
   A10        2.16979  -0.00406   0.00537  -0.01233  -0.00697   2.16282
   A11        2.03741   0.00379  -0.00677   0.01598   0.00921   2.04662
   A12        2.07599   0.00027   0.00140  -0.00364  -0.00224   2.07375
   A13        1.99188   0.00237  -0.00106   0.00800   0.00691   1.99879
   A14        2.16958   0.00068  -0.00349   0.00150  -0.00200   2.16758
   A15        2.03823  -0.00002   0.00300  -0.00037   0.00264   2.04086
   A16        2.07538  -0.00066   0.00049  -0.00113  -0.00063   2.07475
    D1        0.00000  -0.00000   0.00000  -0.00000  -0.00000   0.00000
    D2        3.14159  -0.00000   0.00000   0.00000   0.00000   3.14159
    D3        3.14159  -0.00000   0.00000  -0.00000   0.00000   3.14159
    D4       -0.00000   0.00000   0.00000  -0.00000   0.00000   0.00000
    D5       -0.00000  -0.00000   0.00000   0.00000   0.00000   0.00000
    D6        3.14159  -0.00000   0.00000  -0.00000   0.00000   3.14159
    D7        3.14159   0.00000   0.00000   0.00000   0.00000   3.14159
    D8        0.00000   0.00000   0.00000   0.00000   0.00000   0.00000
    D9        0.00000   0.00000   0.00000   0.00000   0.00000   0.00000
   D10        3.14159   0.00000   0.00000   0.00000   0.00000   3.14159
   D11        3.14159   0.00000   0.00000  -0.00000   0.00000   3.14159
   D12       -0.00000  -0.00000   0.00000  -0.00000   0.00000   0.00000
   D13       -0.00000   0.00000   0.00000   0.00000   0.00000   0.00000
   D14        3.14159   0.00000   0.00000   0.00000   0.00000   3.14159
   D15        3.14159  -0.00000   0.00000  -0.00000   0.00000   3.14159
   D16        0.00000  -0.00000   0.00000   0.00000   0.00000   0.00000
   D17        0.00000  -0.00000   0.00000  -0.00000   0.00000   0.00000
   D18        3.14159  -0.00000   0.00000  -0.00000   0.00000   3.14159
   D19        0.00000   0.00000   0.00000  -0.00000  -0.00000   0.00000
   D20        3.14159   0.00000   0.00000   0.00000   0.00000   3.14159
         Item               Value     Threshold  Converged?
 Maximum Force            0.013251     0.000450     NO 
 RMS     Force            0.002947     0.000300     NO 
 Maximum Displacement     0.044517     0.001800     NO 
 RMS     Displacement     0.010035     0.001200     NO 
 Predicted change in Energy=-4.754277D-04
 GradGradGradGradGradGradGradGradGradGradGradGradGradGradGradGradGradGrad

                          Input orientation:                          
 ---------------------------------------------------------------------
 Center     Atomic      Atomic             Coordinates (Angstroms)
 Number     Number       Type             X           Y           Z
 ---------------------------------------------------------------------
      1          6           0        1.182287    0.685107   -0.000000
      2          6           0        1.207183   -0.702035    0.000000
      3          6           0       -0.009537   -1.375076    0.000000
      4          6           0       -1.200023   -0.648342    0.000000
      5          6           0       -1.260670    0.730540   -0.000000
      6          6           0       -0.037592    1.354816   -0.000000
      7         17           0        0.020365    3.165056   -0.000000
      8         17           0        2.757426    1.506431   -0.000000
      9          1           0        2.139639   -1.247165    0.000000
     10         17           0        0.063543   -3.139028    0.000000
     11         17           0       -2.717046   -1.571995    0.000000
 ---------------------------------------------------------------------
                    Distance matrix (angstroms):
                    1          2          3          4          5
     1  C    0.000000
     2  C    1.387365   0.000000
     3  C    2.380083   1.390464   0.000000
     4  C    2.730107   2.407804   1.394775   0.000000
     5  C    2.443379   2.853519   2.449276   1.380216   0.000000
     6  C    1.391624   2.404184   2.730036   2.316007   1.373186
     7  Cl   2.738651   4.045111   4.540230   4.003917   2.750985
     8  Cl   1.776411   2.698254   3.994892   4.506046   4.092323
     9  H    2.156431   1.080111   2.152978   3.392923   3.933626
    10  Cl   3.984420   2.691998   1.765466   2.792868   4.089878
    11  Cl   4.505475   4.019503   2.714661   1.776090   2.724463
                    6          7          8          9         10
     6  C    0.000000
     7  Cl   1.811167   0.000000
     8  Cl   2.799128   3.200397   0.000000
     9  H    3.392734   4.894794   2.822047   0.000000
    10  Cl   4.494982   6.304232   5.370037   2.808794   0.000000
    11  Cl   3.968084   5.471112   6.280649   4.867535   3.191750
                   11
    11  Cl   0.000000
 Stoichiometry    C6HCl4(1-)
 Framework group  CS[SG(C6HCl4)]
 Deg. of freedom    19
 Full point group                 CS      NOp   2
 Largest Abelian subgroup         CS      NOp   2
 Largest concise Abelian subgroup C1      NOp   1
                         Standard orientation:                         
 ---------------------------------------------------------------------
 Center     Atomic      Atomic             Coordinates (Angstroms)
 Number     Number       Type             X           Y           Z
 ---------------------------------------------------------------------
      1          6           0        0.000000    1.345476    0.000000
      2          6           0       -1.197084    0.644213   -0.000000
      3          6           0       -1.137869   -0.744990   -0.000000
      4          6           0        0.102583   -1.382703   -0.000000
      5          6           0        1.311239   -0.716260    0.000000
      6          6           0        1.207084    0.652970    0.000000
      7         17           0        2.722185    1.645338    0.000000
      8         17           0       -0.119324    3.117875    0.000000
      9          1           0       -2.148113    1.156252   -0.000000
     10         17           0       -2.681711   -1.601391   -0.000000
     11         17           0        0.104285   -3.158792   -0.000000
 ---------------------------------------------------------------------
 Rotational constants (GHZ):           1.1605713           0.4620593           0.3304836
 Standard basis: 6-311++G(d,p) (5D, 7F)
 There are   200 symmetry adapted cartesian basis functions of A'  symmetry.
 There are    69 symmetry adapted cartesian basis functions of A"  symmetry.
 There are   190 symmetry adapted basis functions of A'  symmetry.
 There are    69 symmetry adapted basis functions of A"  symmetry.
   259 basis functions,   437 primitive gaussians,   269 cartesian basis functions
    53 alpha electrons       53 beta electrons
       nuclear repulsion energy       804.1045035283 Hartrees.
 NAtoms=   11 NActive=   11 NUniq=   11 SFac= 1.00D+00 NAtFMM=   60 NAOKFM=F Big=F
 Integral buffers will be    131072 words long.
 Raffenetti 2 integral format.
 Two-electron integral symmetry is turned on.
 One-electron integrals computed using PRISM.
 NBasis=   259 RedAO= T EigKep=  1.29D-06  NBF=   190    69
 NBsUse=   258 1.00D-06 EigRej=  9.01D-07 NBFU=   189    69
 Initial guess from the checkpoint file:  "frequency_chks/Pentachlorobenzene_anion_product_Freq.chk"
 B after Tr=     0.000000   -0.000000    0.000000
         Rot=    1.000000    0.000000    0.000000    0.000706 Ang=   0.08 deg.
 Initial guess orbital symmetries:
       Occupied  (A') (A') (A') (A') (A') (A') (A') (A') (A') (A')
                 (A') (A') (A') (A') (A') (A') (A") (A') (A") (A')
                 (A') (A') (A") (A') (A") (A') (A') (A') (A') (A')
                 (A') (A') (A') (A') (A') (A') (A') (A') (A") (A')
                 (A') (A") (A') (A") (A') (A") (A') (A") (A') (A')
                 (A") (A") (A')
       Virtual   (A') (A') (A') (A") (A') (A') (A") (A') (A") (A')
                 (A") (A') (A") (A') (A') (A") (A') (A') (A') (A')
                 (A") (A') (A') (A") (A') (A") (A') (A") (A') (A')
                 (A') (A") (A') (A") (A') (A') (A') (A") (A') (A')
                 (A') (A') (A') (A') (A') (A') (A') (A') (A') (A')
                 (A') (A') (A') (A") (A') (A') (A") (A') (A') (A')
                 (A") (A') (A") (A') (A') (A") (A') (A') (A") (A")
                 (A') (A") (A") (A') (A') (A') (A") (A') (A') (A')
                 (A') (A") (A') (A') (A") (A') (A') (A") (A') (A')
                 (A") (A") (A") (A') (A') (A") (A') (A') (A') (A')
                 (A") (A') (A') (A') (A') (A") (A') (A') (A") (A')
                 (A') (A') (A') (A') (A") (A') (A") (A') (A") (A")
                 (A') (A') (A') (A') (A') (A") (A') (A') (A') (A")
                 (A') (A") (A') (A") (A") (A') (A') (A") (A') (A')
                 (A') (A") (A") (A') (A") (A') (A") (A") (A') (A')
                 (A') (A') (A') (A') (A') (A') (A') (A') (A") (A')
                 (A') (A") (A") (A") (A") (A') (A") (A') (A') (A')
                 (A') (A') (A') (A') (A') (A') (A') (A') (A') (A')
                 (A') (A') (A') (A') (A') (A') (A') (A') (A') (A")
                 (A") (A") (A") (A') (A') (A') (A') (A') (A') (A')
                 (A') (A') (A') (A') (A')
 ExpMin= 3.60D-02 ExpMax= 1.06D+05 ExpMxC= 3.62D+03 IAcc=3 IRadAn=         5 AccDes= 0.00D+00
 Harris functional with IExCor= 1009 and IRadAn=       5 diagonalized for initial guess.
 HarFok:  IExCor= 1009 AccDes= 0.00D+00 IRadAn=         5 IDoV= 1 UseB2=F ITyADJ=14
 ICtDFT=  3500011 ScaDFX=  1.000000  1.000000  1.000000  1.000000
 FoFCou: FMM=F IPFlag=           0 FMFlag=      100000 FMFlg1=           0
         NFxFlg=           0 DoJE=T BraDBF=F KetDBF=T FulRan=T
         wScrn=  0.000000 ICntrl=       500 IOpCl=  0 I1Cent=   200000004 NGrid=           0
         NMat0=    1 NMatS0=      1 NMatT0=    0 NMatD0=    1 NMtDS0=    0 NMtDT0=    0
 Petite list used in FoFCou.
 Keep R1 ints in memory in symmetry-blocked form, NReq=864233843.
 Requested convergence on RMS density matrix=1.00D-08 within 128 cycles.
 Requested convergence on MAX density matrix=1.00D-06.
 Requested convergence on             energy=1.00D-06.
 No special actions if energy rises.
 SCF Done:  E(RM062X) =  -2070.00677062     A.U. after   16 cycles
            NFock= 16  Conv=0.79D-08     -V/T= 2.0023
 Calling FoFJK, ICntrl=      2127 FMM=F ISym2X=1 I1Cent= 0 IOpClX= 0 NMat=1 NMatS=1 NMatT=0.
 ***** Axes restored to original set *****
 -------------------------------------------------------------------
 Center     Atomic                   Forces (Hartrees/Bohr)
 Number     Number              X              Y              Z
 -------------------------------------------------------------------
      1        6           0.006490642    0.001907661   -0.000000000
      2        6          -0.003460652   -0.000056408    0.000000000
      3        6           0.001740526    0.000443545   -0.000000000
      4        6           0.004111611    0.003058858   -0.000000000
      5        6           0.001315608   -0.001737598    0.000000000
      6        6          -0.000354266    0.004830191   -0.000000000
      7       17           0.000176044   -0.004115035    0.000000000
      8       17          -0.004326409   -0.001626044    0.000000000
      9        1           0.000445052    0.000380681   -0.000000000
     10       17          -0.000862635    0.000643673   -0.000000000
     11       17          -0.005275520   -0.003729523    0.000000000
 -------------------------------------------------------------------
 Cartesian Forces:  Max     0.006490642 RMS     0.002443356

 GradGradGradGradGradGradGradGradGradGradGradGradGradGradGradGradGradGrad
 Berny optimization.
 Using GEDIIS/GDIIS optimizer.
 FormGI is forming the generalized inverse of G from B-inverse, IUseBI=4.
 Internal  Forces:  Max     0.006444798 RMS     0.001444460
 Search for a local minimum.
 Step number   9 out of a maximum of   57
 All quantities printed in internal units (Hartrees-Bohrs-Radians)
 Mixed Optimization -- RFO/linear search
 Update second derivatives using D2CorX and points    6    7    8    9
 DE= -5.92D-04 DEPred=-4.75D-04 R= 1.24D+00
 TightC=F SS=  1.41D+00  RLast= 5.57D-02 DXNew= 2.2039D+00 1.6705D-01
 Trust test= 1.24D+00 RLast= 5.57D-02 DXMaxT set to 1.31D+00
 ITU=  1  1  1  1  1  0  0  1  0
 Use linear search instead of GDIIS.
     Eigenvalues ---    0.02237   0.02241   0.02246   0.02249   0.02252
     Eigenvalues ---    0.02262   0.02262   0.02262   0.14233   0.16433
     Eigenvalues ---    0.22678   0.24449   0.24907   0.25010   0.25424
     Eigenvalues ---    0.27681   0.28341   0.31047   0.35659   0.35945
     Eigenvalues ---    0.42884   0.44256   0.45909   0.48284   0.50084
     Eigenvalues ---    0.52579  11.95931
 RFO step:  Lambda=-1.20732227D-04 EMin= 2.23739476D-02
 Quartic linear search produced a step of  0.26021.
 Iteration  1 RMS(Cart)=  0.00488096 RMS(Int)=  0.00000708
 Iteration  2 RMS(Cart)=  0.00000854 RMS(Int)=  0.00000127
 Iteration  3 RMS(Cart)=  0.00000000 RMS(Int)=  0.00000127
 ClnCor:  largest displacement from symmetrization is 1.08D-09 for atom     9.
 Variable       Old X    -DE/DX   Delta X   Delta X   Delta X     New X
                                 (Linear)    (Quad)   (Total)
    R1        2.62174  -0.00006   0.00020  -0.00022  -0.00002   2.62172
    R2        2.62979   0.00006   0.00313  -0.00247   0.00066   2.63045
    R3        3.35693  -0.00459   0.00722   0.00076   0.00798   3.36491
    R4        2.62760  -0.00080  -0.00194  -0.00103  -0.00297   2.62462
    R5        2.04111   0.00019   0.00032   0.00048   0.00080   2.04191
    R6        2.63574  -0.00090   0.00375  -0.00435  -0.00060   2.63514
    R7        3.33625  -0.00068  -0.00287  -0.00115  -0.00402   3.33222
    R8        2.60823  -0.00078  -0.00049  -0.00321  -0.00370   2.60453
    R9        3.35632   0.00644   0.00751   0.00177   0.00928   3.36560
   R10        2.59495   0.00052   0.00036   0.00158   0.00194   2.59689
   R11        3.42261  -0.00411  -0.00586  -0.01250  -0.01836   3.40425
    A1        2.09081  -0.00126  -0.00156  -0.00199  -0.00355   2.08727
    A2        2.03349   0.00155   0.00049   0.00471   0.00520   2.03869
    A3        2.15888  -0.00029   0.00106  -0.00271  -0.00165   2.15723
    A4        2.05812   0.00114   0.00196   0.00339   0.00536   2.06347
    A5        2.11777  -0.00113  -0.00289  -0.00422  -0.00710   2.11067
    A6        2.10729  -0.00001   0.00092   0.00082   0.00175   2.10904
    A7        2.08826   0.00035   0.00013  -0.00100  -0.00088   2.08738
    A8        2.03466   0.00123   0.00037   0.00606   0.00643   2.04108
    A9        2.16027  -0.00158  -0.00049  -0.00506  -0.00555   2.15472
   A10        2.16282  -0.00107  -0.00181  -0.00174  -0.00356   2.15926
   A11        2.04662  -0.00019   0.00240  -0.00320  -0.00080   2.04581
   A12        2.07375   0.00126  -0.00058   0.00495   0.00436   2.07811
   A13        1.99879   0.00119   0.00180   0.00433   0.00613   2.00492
   A14        2.16758  -0.00036  -0.00052  -0.00299  -0.00350   2.16407
   A15        2.04086  -0.00036   0.00069  -0.00061   0.00008   2.04094
   A16        2.07475   0.00072  -0.00016   0.00359   0.00343   2.07817
    D1        0.00000   0.00000   0.00000  -0.00000  -0.00000   0.00000
    D2        3.14159   0.00000   0.00000   0.00000   0.00000   3.14159
    D3        3.14159  -0.00000   0.00000  -0.00000   0.00000   3.14159
    D4       -0.00000   0.00000   0.00000  -0.00000   0.00000   0.00000
    D5       -0.00000   0.00000   0.00000   0.00000   0.00000   0.00000
    D6        3.14159   0.00000   0.00000   0.00000   0.00000   3.14159
    D7        3.14159   0.00000   0.00000   0.00000   0.00000   3.14159
    D8        0.00000   0.00000   0.00000   0.00000   0.00000   0.00000
    D9       -0.00000  -0.00000   0.00000  -0.00000   0.00000   0.00000
   D10        3.14159   0.00000   0.00000  -0.00000   0.00000   3.14159
   D11        3.14159  -0.00000   0.00000  -0.00000   0.00000   3.14159
   D12        0.00000  -0.00000   0.00000  -0.00000   0.00000   0.00000
   D13        0.00000   0.00000   0.00000   0.00000   0.00000   0.00000
   D14        3.14159   0.00000   0.00000   0.00000   0.00000   3.14159
   D15        3.14159   0.00000   0.00000   0.00000   0.00000   3.14159
   D16       -0.00000   0.00000   0.00000   0.00000   0.00000   0.00000
   D17       -0.00000  -0.00000   0.00000   0.00000   0.00000   0.00000
   D18        3.14159  -0.00000   0.00000  -0.00000   0.00000   3.14159
   D19        0.00000  -0.00000   0.00000  -0.00000  -0.00000   0.00000
   D20        3.14159  -0.00000   0.00000  -0.00000   0.00000   3.14159
         Item               Value     Threshold  Converged?
 Maximum Force            0.006445     0.000450     NO 
 RMS     Force            0.001444     0.000300     NO 
 Maximum Displacement     0.015587     0.001800     NO 
 RMS     Displacement     0.004880     0.001200     NO 
 Predicted change in Energy=-8.537585D-05
 GradGradGradGradGradGradGradGradGradGradGradGradGradGradGradGradGradGrad

                          Input orientation:                          
 ---------------------------------------------------------------------
 Center     Atomic      Atomic             Coordinates (Angstroms)
 Number     Number       Type             X           Y           Z
 ---------------------------------------------------------------------
      1          6           0        1.184687    0.686752   -0.000000
      2          6           0        1.204625   -0.700457   -0.000000
      3          6           0       -0.009516   -1.374904    0.000000
      4          6           0       -1.200388   -0.649417    0.000000
      5          6           0       -1.257295    0.727667   -0.000000
      6          6           0       -0.035482    1.356663   -0.000000
      7         17           0        0.022072    3.157196   -0.000000
      8         17           0        2.762232    1.512588   -0.000000
      9          1           0        2.139366   -1.242504   -0.000000
     10         17           0        0.055294   -3.137049    0.000000
     11         17           0       -2.720021   -1.578223    0.000000
 ---------------------------------------------------------------------
                    Distance matrix (angstroms):
                    1          2          3          4          5
     1  C    0.000000
     2  C    1.387353   0.000000
     3  C    2.382551   1.388891   0.000000
     4  C    2.733848   2.405554   1.394456   0.000000
     5  C    2.442324   2.846153   2.444945   1.378259   0.000000
     6  C    1.391974   2.402001   2.731690   2.319776   1.374213
     7  Cl   2.730342   4.034838   4.532210   3.998088   2.745796
     8  Cl   1.780634   2.706236   4.002525   4.514047   4.095449
     9  H    2.152543   1.080534   2.152957   3.392006   3.926688
    10  Cl   3.987102   2.694057   1.763336   2.786585   4.081534
    11  Cl   4.514073   4.021606   2.718119   1.781001   2.730695
                    6          7          8          9         10
     6  C    0.000000
     7  Cl   1.801453   0.000000
     8  Cl   2.802056   3.195812   0.000000
     9  H    3.389045   4.882652   2.824623   0.000000
    10  Cl   4.494629   6.294333   5.380209   2.816497   0.000000
    11  Cl   3.977474   5.472044   6.293506   4.870969   3.183129
                   11
    11  Cl   0.000000
 Stoichiometry    C6HCl4(1-)
 Framework group  CS[SG(C6HCl4)]
 Deg. of freedom    19
 Full point group                 CS      NOp   2
 Largest Abelian subgroup         CS      NOp   2
 Largest concise Abelian subgroup C1      NOp   1
                         Standard orientation:                         
 ---------------------------------------------------------------------
 Center     Atomic      Atomic             Coordinates (Angstroms)
 Number     Number       Type             X           Y           Z
 ---------------------------------------------------------------------
      1          6           0        0.000000    1.349232    0.000000
      2          6           0       -1.194233    0.643147    0.000000
      3          6           0       -1.136917   -0.744561   -0.000000
      4          6           0        0.102969   -1.382676   -0.000000
      5          6           0        1.307830   -0.713419   -0.000000
      6          6           0        1.207728    0.657144    0.000000
      7         17           0        2.714295    1.644811    0.000000
      8         17           0       -0.117550    3.125981    0.000000
      9          1           0       -2.144058    1.158303    0.000000
     10         17           0       -2.674508   -1.607792   -0.000000
     11         17           0        0.102456   -3.163678   -0.000000
 ---------------------------------------------------------------------
 Rotational constants (GHZ):           1.1651625           0.4611099           0.3303678
 Standard basis: 6-311++G(d,p) (5D, 7F)
 There are   200 symmetry adapted cartesian basis functions of A'  symmetry.
 There are    69 symmetry adapted cartesian basis functions of A"  symmetry.
 There are   190 symmetry adapted basis functions of A'  symmetry.
 There are    69 symmetry adapted basis functions of A"  symmetry.
   259 basis functions,   437 primitive gaussians,   269 cartesian basis functions
    53 alpha electrons       53 beta electrons
       nuclear repulsion energy       804.2584607691 Hartrees.
 NAtoms=   11 NActive=   11 NUniq=   11 SFac= 1.00D+00 NAtFMM=   60 NAOKFM=F Big=F
 Integral buffers will be    131072 words long.
 Raffenetti 2 integral format.
 Two-electron integral symmetry is turned on.
 One-electron integrals computed using PRISM.
 NBasis=   259 RedAO= T EigKep=  1.29D-06  NBF=   190    69
 NBsUse=   258 1.00D-06 EigRej=  8.95D-07 NBFU=   189    69
 Initial guess from the checkpoint file:  "frequency_chks/Pentachlorobenzene_anion_product_Freq.chk"
 B after Tr=     0.000000    0.000000   -0.000000
         Rot=    1.000000   -0.000000   -0.000000   -0.000330 Ang=  -0.04 deg.
 Initial guess orbital symmetries:
       Occupied  (A') (A') (A') (A') (A') (A') (A') (A') (A') (A')
                 (A') (A') (A') (A') (A') (A') (A") (A') (A") (A')
                 (A') (A') (A") (A') (A") (A') (A') (A') (A') (A')
                 (A') (A') (A') (A') (A') (A') (A') (A') (A") (A')
                 (A') (A") (A') (A") (A') (A") (A') (A") (A') (A')
                 (A") (A") (A')
       Virtual   (A') (A') (A') (A") (A') (A") (A') (A') (A") (A')
                 (A") (A') (A") (A') (A') (A") (A') (A') (A') (A')
                 (A") (A') (A') (A") (A') (A') (A") (A") (A') (A')
                 (A') (A") (A') (A") (A') (A') (A") (A') (A') (A')
                 (A') (A') (A') (A') (A') (A') (A') (A') (A') (A')
                 (A') (A') (A') (A") (A') (A') (A") (A') (A') (A')
                 (A") (A') (A") (A') (A') (A") (A') (A') (A") (A")
                 (A') (A") (A") (A') (A') (A') (A") (A') (A') (A')
                 (A') (A") (A') (A') (A") (A') (A') (A") (A') (A')
                 (A") (A") (A") (A') (A') (A") (A') (A') (A') (A')
                 (A") (A') (A') (A') (A') (A") (A') (A') (A") (A')
                 (A') (A') (A') (A') (A") (A') (A") (A') (A") (A")
                 (A') (A') (A') (A') (A') (A") (A') (A') (A') (A")
                 (A') (A") (A') (A") (A") (A') (A') (A") (A') (A')
                 (A') (A") (A") (A') (A") (A') (A") (A") (A') (A')
                 (A') (A') (A') (A') (A') (A') (A') (A') (A") (A')
                 (A') (A") (A") (A") (A") (A') (A") (A') (A') (A')
                 (A') (A') (A') (A') (A') (A') (A') (A') (A') (A')
                 (A') (A') (A') (A') (A') (A') (A') (A') (A') (A")
                 (A") (A") (A") (A') (A') (A') (A') (A') (A') (A')
                 (A') (A') (A') (A') (A')
 Keep R1 ints in memory in symmetry-blocked form, NReq=864233843.
 Requested convergence on RMS density matrix=1.00D-08 within 128 cycles.
 Requested convergence on MAX density matrix=1.00D-06.
 Requested convergence on             energy=1.00D-06.
 No special actions if energy rises.
 SCF Done:  E(RM062X) =  -2070.00686672     A.U. after   18 cycles
            NFock= 18  Conv=0.80D-08     -V/T= 2.0023
 Calling FoFJK, ICntrl=      2127 FMM=F ISym2X=1 I1Cent= 0 IOpClX= 0 NMat=1 NMatS=1 NMatT=0.
 ***** Axes restored to original set *****
 -------------------------------------------------------------------
 Center     Atomic                   Forces (Hartrees/Bohr)
 Number     Number              X              Y              Z
 -------------------------------------------------------------------
      1        6           0.005745587    0.002367965   -0.000000000
      2        6          -0.000174672   -0.000084470    0.000000000
      3        6           0.000159696    0.000280208   -0.000000000
      4        6           0.003869081    0.002872820   -0.000000000
      5        6           0.000168800   -0.000801868    0.000000000
      6        6          -0.000003880    0.002241618   -0.000000000
      7       17          -0.000143364   -0.001226736    0.000000000
      8       17          -0.005709249   -0.002981085    0.000000000
      9        1           0.000068154   -0.000002888   -0.000000000
     10       17           0.000097551   -0.000209736    0.000000000
     11       17          -0.004077706   -0.002455829    0.000000000
 -------------------------------------------------------------------
 Cartesian Forces:  Max     0.005745587 RMS     0.002010614

 GradGradGradGradGradGradGradGradGradGradGradGradGradGradGradGradGradGrad
 Berny optimization.
 Using GEDIIS/GDIIS optimizer.
 FormGI is forming the generalized inverse of G from B-inverse, IUseBI=4.
 Internal  Forces:  Max     0.006439924 RMS     0.001191926
 Search for a local minimum.
 Step number  10 out of a maximum of   57
 All quantities printed in internal units (Hartrees-Bohrs-Radians)
 Mixed Optimization -- RFO/linear search
 Update second derivatives using D2CorX and points    6    7    8    9   10
 DE= -9.61D-05 DEPred=-8.54D-05 R= 1.13D+00
 TightC=F SS=  1.41D+00  RLast= 2.87D-02 DXNew= 2.2039D+00 8.6017D-02
 Trust test= 1.13D+00 RLast= 2.87D-02 DXMaxT set to 1.31D+00
 ITU=  1  1  1  1  1  1  0  0  1  0
 Use linear search instead of GDIIS.
     Eigenvalues ---    0.02237   0.02241   0.02246   0.02249   0.02252
     Eigenvalues ---    0.02262   0.02262   0.02262   0.13495   0.16253
     Eigenvalues ---    0.19503   0.24020   0.24915   0.25041   0.25541
     Eigenvalues ---    0.26814   0.29232   0.31333   0.35655   0.37909
     Eigenvalues ---    0.42926   0.44462   0.45841   0.48285   0.50688
     Eigenvalues ---    0.52698  11.73498
 RFO step:  Lambda=-1.86028606D-05 EMin= 2.23739190D-02
 Quartic linear search produced a step of  0.12683.
 Iteration  1 RMS(Cart)=  0.00096896 RMS(Int)=  0.00000069
 Iteration  2 RMS(Cart)=  0.00000096 RMS(Int)=  0.00000028
 ClnCor:  largest displacement from symmetrization is 6.67D-14 for atom     8.
 Variable       Old X    -DE/DX   Delta X   Delta X   Delta X     New X
                                 (Linear)    (Quad)   (Total)
    R1        2.62172  -0.00003  -0.00000  -0.00009  -0.00009   2.62162
    R2        2.63045   0.00038   0.00008   0.00130   0.00138   2.63183
    R3        3.36491  -0.00644   0.00101  -0.00310  -0.00209   3.36282
    R4        2.62462  -0.00022  -0.00038  -0.00055  -0.00093   2.62370
    R5        2.04191   0.00006   0.00010   0.00020   0.00030   2.04221
    R6        2.63514   0.00009  -0.00008   0.00030   0.00022   2.63536
    R7        3.33222   0.00021  -0.00051   0.00090   0.00038   3.33261
    R8        2.60453  -0.00038  -0.00047  -0.00047  -0.00094   2.60359
    R9        3.36560   0.00476   0.00118  -0.00213  -0.00096   3.36465
   R10        2.59689   0.00017   0.00025   0.00028   0.00052   2.59741
   R11        3.40425  -0.00123  -0.00233  -0.00410  -0.00643   3.39782
    A1        2.08727   0.00017  -0.00045   0.00035  -0.00010   2.08717
    A2        2.03869  -0.00009   0.00066  -0.00014   0.00052   2.03921
    A3        2.15723  -0.00008  -0.00021  -0.00021  -0.00042   2.15681
    A4        2.06347   0.00004   0.00068   0.00035   0.00103   2.06450
    A5        2.11067  -0.00005  -0.00090  -0.00038  -0.00128   2.10939
    A6        2.10904   0.00000   0.00022   0.00003   0.00025   2.10930
    A7        2.08738  -0.00002  -0.00011   0.00018   0.00007   2.08745
    A8        2.04108  -0.00013   0.00082  -0.00076   0.00006   2.04114
    A9        2.15472   0.00014  -0.00070   0.00058  -0.00013   2.15460
   A10        2.15926  -0.00003  -0.00045  -0.00082  -0.00128   2.15798
   A11        2.04581   0.00008  -0.00010   0.00099   0.00089   2.04670
   A12        2.07811  -0.00005   0.00055  -0.00017   0.00039   2.07850
   A13        2.00492   0.00037   0.00078   0.00169   0.00246   2.00738
   A14        2.16407  -0.00054  -0.00044  -0.00174  -0.00219   2.16188
   A15        2.04094   0.00043   0.00001   0.00159   0.00160   2.04254
   A16        2.07817   0.00011   0.00043   0.00016   0.00059   2.07876
    D1        0.00000  -0.00000   0.00000  -0.00000  -0.00000   0.00000
    D2        3.14159   0.00000   0.00000  -0.00000   0.00000   3.14159
    D3        3.14159  -0.00000   0.00000  -0.00000   0.00000   3.14159
    D4       -0.00000  -0.00000   0.00000  -0.00000   0.00000   0.00000
    D5        0.00000   0.00000   0.00000   0.00000   0.00000   0.00000
    D6        3.14159   0.00000   0.00000   0.00000   0.00000   3.14159
    D7        3.14159   0.00000   0.00000   0.00000   0.00000   3.14159
    D8       -0.00000   0.00000   0.00000   0.00000   0.00000   0.00000
    D9       -0.00000   0.00000   0.00000   0.00000   0.00000   0.00000
   D10        3.14159   0.00000   0.00000   0.00000   0.00000   3.14159
   D11        3.14159  -0.00000   0.00000  -0.00000   0.00000   3.14159
   D12        0.00000   0.00000   0.00000   0.00000   0.00000   0.00000
   D13        0.00000   0.00000   0.00000   0.00000   0.00000   0.00000
   D14        3.14159   0.00000   0.00000   0.00000   0.00000   3.14159
   D15        3.14159  -0.00000   0.00000  -0.00000   0.00000   3.14159
   D16       -0.00000   0.00000   0.00000   0.00000   0.00000   0.00000
   D17        0.00000  -0.00000   0.00000  -0.00000  -0.00000   0.00000
   D18        3.14159  -0.00000   0.00000  -0.00000   0.00000   3.14159
   D19       -0.00000  -0.00000   0.00000  -0.00000   0.00000   0.00000
   D20        3.14159   0.00000   0.00000   0.00000   0.00000   3.14159
         Item               Value     Threshold  Converged?
 Maximum Force            0.006440     0.000450     NO 
 RMS     Force            0.001192     0.000300     NO 
 Maximum Displacement     0.003740     0.001800     NO 
 RMS     Displacement     0.000969     0.001200     YES
 Predicted change in Energy=-1.055531D-05
 GradGradGradGradGradGradGradGradGradGradGradGradGradGradGradGradGradGrad

                          Input orientation:                          
 ---------------------------------------------------------------------
 Center     Atomic      Atomic             Coordinates (Angstroms)
 Number     Number       Type             X           Y           Z
 ---------------------------------------------------------------------
      1          6           0        1.185293    0.686917   -0.000000
      2          6           0        1.204121   -0.700258   -0.000000
      3          6           0       -0.009439   -1.374743    0.000000
      4          6           0       -1.200627   -0.649547    0.000000
      5          6           0       -1.256168    0.727096   -0.000000
      6          6           0       -0.035046    1.358035   -0.000000
      7         17           0        0.020788    3.155217   -0.000000
      8         17           0        2.762090    1.511797   -0.000000
      9          1           0        2.139260   -1.241934   -0.000000
     10         17           0        0.055681   -3.137080    0.000000
     11         17           0       -2.720377   -1.577191    0.000000
 ---------------------------------------------------------------------
                    Distance matrix (angstroms):
                    1          2          3          4          5
     1  C    0.000000
     2  C    1.387303   0.000000
     3  C    2.382819   1.388401   0.000000
     4  C    2.734731   2.405283   1.394575   0.000000
     5  C    2.441791   2.844356   2.443780   1.377763   0.000000
     6  C    1.392705   2.402521   2.732898   2.321415   1.374490
     7  Cl   2.729208   4.032985   4.530060   3.996008   2.743426
     8  Cl   1.779528   2.705635   4.001686   4.513817   4.094161
     9  H    2.151864   1.080693   2.152799   3.392015   3.925049
    10  Cl   3.987352   2.693885   1.763540   2.786778   4.080785
    11  Cl   4.514470   4.021280   2.718487   1.780495   2.730137
                    6          7          8          9         10
     6  C    0.000000
     7  Cl   1.798049   0.000000
     8  Cl   2.801359   3.196180   0.000000
     9  H    3.389313   4.880866   2.823288   0.000000
    10  Cl   4.496031   6.292394   5.379286   2.816537   0.000000
    11  Cl   3.978260   5.468973   6.292798   4.871187   3.184298
                   11
    11  Cl   0.000000
 Stoichiometry    C6HCl4(1-)
 Framework group  CS[SG(C6HCl4)]
 Deg. of freedom    19
 Full point group                 CS      NOp   2
 Largest Abelian subgroup         CS      NOp   2
 Largest concise Abelian subgroup C1      NOp   1
                         Standard orientation:                         
 ---------------------------------------------------------------------
 Center     Atomic      Atomic             Coordinates (Angstroms)
 Number     Number       Type             X           Y           Z
 ---------------------------------------------------------------------
      1          6           0        0.000000    1.350067    0.000000
      2          6           0       -1.193660    0.643111    0.000000
      3          6           0       -1.136748   -0.744122    0.000000
      4          6           0        0.103021   -1.382723   -0.000000
      5          6           0        1.306828   -0.712589   -0.000000
      6          6           0        1.208812    0.658403   -0.000000
      7         17           0        2.713466    1.642779   -0.000000
      8         17           0       -0.117887    3.125685    0.000000
      9          1           0       -2.143351    1.158848    0.000000
     10         17           0       -2.674708   -1.607113    0.000000
     11         17           0        0.103473   -3.163218   -0.000000
 ---------------------------------------------------------------------
 Rotational constants (GHZ):           1.1648265           0.4614081           0.3304938
 Standard basis: 6-311++G(d,p) (5D, 7F)
 There are   200 symmetry adapted cartesian basis functions of A'  symmetry.
 There are    69 symmetry adapted cartesian basis functions of A"  symmetry.
 There are   190 symmetry adapted basis functions of A'  symmetry.
 There are    69 symmetry adapted basis functions of A"  symmetry.
   259 basis functions,   437 primitive gaussians,   269 cartesian basis functions
    53 alpha electrons       53 beta electrons
       nuclear repulsion energy       804.4024942802 Hartrees.
 NAtoms=   11 NActive=   11 NUniq=   11 SFac= 1.00D+00 NAtFMM=   60 NAOKFM=F Big=F
 Integral buffers will be    131072 words long.
 Raffenetti 2 integral format.
 Two-electron integral symmetry is turned on.
 One-electron integrals computed using PRISM.
 NBasis=   259 RedAO= T EigKep=  1.29D-06  NBF=   190    69
 NBsUse=   258 1.00D-06 EigRej=  8.90D-07 NBFU=   189    69
 Initial guess from the checkpoint file:  "frequency_chks/Pentachlorobenzene_anion_product_Freq.chk"
 B after Tr=    -0.000000   -0.000000    0.000000
         Rot=    1.000000    0.000000   -0.000000    0.000021 Ang=   0.00 deg.
 Initial guess orbital symmetries:
       Occupied  (A') (A') (A') (A') (A') (A') (A') (A') (A') (A')
                 (A') (A') (A') (A') (A') (A') (A") (A') (A") (A')
                 (A') (A') (A") (A') (A") (A') (A') (A') (A') (A')
                 (A') (A') (A') (A') (A') (A') (A') (A') (A") (A')
                 (A') (A") (A') (A") (A') (A") (A') (A") (A') (A')
                 (A") (A") (A')
       Virtual   (A') (A') (A') (A") (A') (A") (A') (A') (A") (A')
                 (A") (A') (A") (A') (A') (A") (A') (A') (A') (A')
                 (A") (A') (A') (A") (A') (A') (A") (A") (A') (A')
                 (A') (A") (A') (A") (A') (A') (A") (A') (A') (A')
                 (A') (A') (A') (A') (A') (A') (A') (A') (A') (A')
                 (A') (A') (A') (A") (A') (A') (A") (A') (A') (A')
                 (A") (A') (A") (A') (A') (A") (A') (A') (A") (A")
                 (A') (A") (A") (A') (A') (A') (A") (A') (A') (A')
                 (A') (A") (A') (A') (A") (A') (A') (A") (A') (A')
                 (A") (A") (A") (A') (A') (A") (A') (A') (A') (A')
                 (A") (A') (A') (A') (A') (A") (A') (A') (A") (A')
                 (A') (A') (A') (A') (A") (A') (A") (A') (A") (A")
                 (A') (A') (A') (A') (A') (A") (A') (A') (A') (A")
                 (A') (A") (A') (A") (A") (A') (A') (A") (A') (A')
                 (A') (A") (A") (A') (A") (A') (A") (A") (A') (A')
                 (A') (A') (A') (A') (A') (A') (A') (A') (A") (A')
                 (A') (A") (A") (A") (A") (A') (A") (A') (A') (A')
                 (A') (A') (A') (A') (A') (A') (A') (A') (A') (A')
                 (A') (A') (A') (A') (A') (A') (A') (A') (A') (A")
                 (A") (A") (A") (A') (A') (A') (A') (A') (A') (A')
                 (A') (A') (A') (A') (A')
 Keep R1 ints in memory in symmetry-blocked form, NReq=864233843.
 Requested convergence on RMS density matrix=1.00D-08 within 128 cycles.
 Requested convergence on MAX density matrix=1.00D-06.
 Requested convergence on             energy=1.00D-06.
 No special actions if energy rises.
 SCF Done:  E(RM062X) =  -2070.00688242     A.U. after   13 cycles
            NFock= 13  Conv=0.94D-08     -V/T= 2.0023
 Calling FoFJK, ICntrl=      2127 FMM=F ISym2X=1 I1Cent= 0 IOpClX= 0 NMat=1 NMatS=1 NMatT=0.
 ***** Axes restored to original set *****
 -------------------------------------------------------------------
 Center     Atomic                   Forces (Hartrees/Bohr)
 Number     Number              X              Y              Z
 -------------------------------------------------------------------
      1        6           0.004871367    0.002585234   -0.000000000
      2        6           0.000406127   -0.000035934   -0.000000000
      3        6          -0.000270918    0.000073294    0.000000000
      4        6           0.004344791    0.002836770   -0.000000000
      5        6          -0.000181996   -0.000318338    0.000000000
      6        6           0.000334896    0.000770162   -0.000000000
      7       17          -0.000044150   -0.000311614    0.000000000
      8       17          -0.005320421   -0.002777937    0.000000000
      9        1          -0.000047339   -0.000023760    0.000000000
     10       17           0.000091000   -0.000204918    0.000000000
     11       17          -0.004183358   -0.002592958    0.000000000
 -------------------------------------------------------------------
 Cartesian Forces:  Max     0.005320421 RMS     0.001897548

 GradGradGradGradGradGradGradGradGradGradGradGradGradGradGradGradGradGrad
 Berny optimization.
 Using GEDIIS/GDIIS optimizer.
 FormGI is forming the generalized inverse of G from B-inverse, IUseBI=4.
 Internal  Forces:  Max     0.006001205 RMS     0.001136821
 Search for a local minimum.
 Step number  11 out of a maximum of   57
 All quantities printed in internal units (Hartrees-Bohrs-Radians)
 Mixed Optimization -- RFO/linear search
 Update second derivatives using D2CorX and points    6    7    8    9   10
                                                     11
 DE= -1.57D-05 DEPred=-1.06D-05 R= 1.49D+00
 TightC=F SS=  1.41D+00  RLast= 8.39D-03 DXNew= 2.2039D+00 2.5182D-02
 Trust test= 1.49D+00 RLast= 8.39D-03 DXMaxT set to 1.31D+00
 ITU=  1  1  1  1  1  1  1  0  0  1  0
 Use linear search instead of GDIIS.
     Eigenvalues ---    0.02237   0.02241   0.02246   0.02249   0.02252
     Eigenvalues ---    0.02262   0.02262   0.02262   0.13231   0.16410
     Eigenvalues ---    0.16510   0.23875   0.24909   0.25178   0.25357
     Eigenvalues ---    0.26471   0.29519   0.31904   0.35571   0.35713
     Eigenvalues ---    0.43024   0.43948   0.44739   0.48302   0.51569
     Eigenvalues ---    0.53203   9.28866
 RFO step:  Lambda=-8.48785599D-06 EMin= 2.23738934D-02
 Quartic linear search produced a step of  0.88703.
 Iteration  1 RMS(Cart)=  0.00085797 RMS(Int)=  0.00000050
 Iteration  2 RMS(Cart)=  0.00000060 RMS(Int)=  0.00000030
 ClnCor:  largest displacement from symmetrization is 1.43D-13 for atom    10.
 Variable       Old X    -DE/DX   Delta X   Delta X   Delta X     New X
                                 (Linear)    (Quad)   (Total)
    R1        2.62162   0.00005  -0.00008   0.00018   0.00009   2.62172
    R2        2.63183  -0.00004   0.00122  -0.00046   0.00076   2.63259
    R3        3.36282  -0.00600  -0.00185  -0.00161  -0.00346   3.35936
    R4        2.62370   0.00007  -0.00082   0.00043  -0.00039   2.62331
    R5        2.04221  -0.00003   0.00027  -0.00021   0.00006   2.04227
    R6        2.63536  -0.00000   0.00020  -0.00005   0.00015   2.63551
    R7        3.33261   0.00021   0.00034   0.00059   0.00093   3.33354
    R8        2.60359  -0.00010  -0.00083   0.00009  -0.00075   2.60285
    R9        3.36465   0.00492  -0.00085  -0.00048  -0.00133   3.36332
   R10        2.59741   0.00020   0.00046   0.00058   0.00105   2.59846
   R11        3.39782  -0.00031  -0.00571  -0.00025  -0.00595   3.39187
    A1        2.08717   0.00027  -0.00009   0.00087   0.00078   2.08795
    A2        2.03921  -0.00014   0.00046  -0.00025   0.00021   2.03942
    A3        2.15681  -0.00013  -0.00037  -0.00061  -0.00099   2.15582
    A4        2.06450  -0.00014   0.00091  -0.00067   0.00024   2.06474
    A5        2.10939   0.00012  -0.00114   0.00072  -0.00042   2.10897
    A6        2.10930   0.00002   0.00023  -0.00004   0.00018   2.10948
    A7        2.08745  -0.00006   0.00006  -0.00003   0.00003   2.08748
    A8        2.04114  -0.00009   0.00005  -0.00029  -0.00024   2.04090
    A9        2.15460   0.00015  -0.00011   0.00032   0.00021   2.15481
   A10        2.15798   0.00015  -0.00113   0.00050  -0.00063   2.15735
   A11        2.04670  -0.00011   0.00079  -0.00065   0.00013   2.04684
   A12        2.07850  -0.00004   0.00034   0.00016   0.00050   2.07900
   A13        2.00738   0.00002   0.00219  -0.00036   0.00182   2.00920
   A14        2.16188  -0.00024  -0.00194  -0.00030  -0.00224   2.15965
   A15        2.04254   0.00016   0.00142   0.00001   0.00143   2.04397
   A16        2.07876   0.00008   0.00052   0.00029   0.00081   2.07957
    D1       -0.00000   0.00000   0.00000   0.00000   0.00000   0.00000
    D2        3.14159  -0.00000   0.00000   0.00000   0.00000   3.14159
    D3        3.14159   0.00000   0.00000   0.00000   0.00000   3.14159
    D4        0.00000   0.00000   0.00000   0.00000   0.00000   0.00000
    D5        0.00000  -0.00000   0.00000  -0.00000   0.00000   0.00000
    D6        3.14159  -0.00000   0.00000  -0.00000   0.00000   3.14159
    D7        3.14159  -0.00000   0.00000  -0.00000   0.00000   3.14159
    D8       -0.00000  -0.00000   0.00000  -0.00000   0.00000   0.00000
    D9        0.00000   0.00000   0.00000  -0.00000   0.00000   0.00000
   D10        3.14159   0.00000   0.00000  -0.00000   0.00000   3.14159
   D11        3.14159   0.00000   0.00000   0.00000   0.00000   3.14159
   D12       -0.00000   0.00000   0.00000   0.00000   0.00000   0.00000
   D13        0.00000  -0.00000   0.00000  -0.00000  -0.00000   0.00000
   D14        3.14159   0.00000   0.00000  -0.00000   0.00000   3.14159
   D15        3.14159  -0.00000   0.00000  -0.00000   0.00000   3.14159
   D16       -0.00000  -0.00000   0.00000  -0.00000   0.00000   0.00000
   D17        0.00000   0.00000   0.00000   0.00000   0.00000   0.00000
   D18        3.14159  -0.00000   0.00000   0.00000   0.00000   3.14159
   D19       -0.00000   0.00000   0.00000   0.00000   0.00000   0.00000
   D20        3.14159  -0.00000   0.00000  -0.00000   0.00000   3.14159
         Item               Value     Threshold  Converged?
 Maximum Force            0.006001     0.000450     NO 
 RMS     Force            0.001137     0.000300     NO 
 Maximum Displacement     0.002994     0.001800     NO 
 RMS     Displacement     0.000858     0.001200     YES
 Predicted change in Energy=-9.027921D-06
 GradGradGradGradGradGradGradGradGradGradGradGradGradGradGradGradGradGrad

                          Input orientation:                          
 ---------------------------------------------------------------------
 Center     Atomic      Atomic             Coordinates (Angstroms)
 Number     Number       Type             X           Y           Z
 ---------------------------------------------------------------------
      1          6           0        1.185437    0.687017   -0.000000
      2          6           0        1.203927   -0.700212   -0.000000
      3          6           0       -0.009458   -1.374587    0.000000
      4          6           0       -1.200731   -0.649380    0.000000
      5          6           0       -1.255417    0.726902   -0.000000
      6          6           0       -0.034569    1.359578   -0.000000
      7         17           0        0.020442    3.153632   -0.000000
      8         17           0        2.760641    1.510991   -0.000000
      9          1           0        2.139187   -1.241738   -0.000000
     10         17           0        0.056097   -3.137403    0.000000
     11         17           0       -2.719982   -1.576490    0.000000
 ---------------------------------------------------------------------
                    Distance matrix (angstroms):
                    1          2          3          4          5
     1  C    0.000000
     2  C    1.387352   0.000000
     3  C    2.382853   1.388195   0.000000
     4  C    2.734914   2.405195   1.394653   0.000000
     5  C    2.441179   2.843418   2.443087   1.377368   0.000000
     6  C    1.393109   2.403457   2.734280   2.322895   1.375044
     7  Cl   2.727894   4.031470   4.528318   3.994266   2.741684
     8  Cl   1.777695   2.704214   4.000001   4.512169   4.091884
     9  H    2.151683   1.080723   2.152748   3.392041   3.924141
    10  Cl   3.987681   2.693959   1.764034   2.787450   4.080800
    11  Cl   4.513952   4.020563   2.718033   1.779791   2.729573
                    6          7          8          9         10
     6  C    0.000000
     7  Cl   1.794898   0.000000
     8  Cl   2.799308   3.194833   0.000000
     9  H    3.389994   4.879382   2.822008   0.000000
    10  Cl   4.497895   6.291136   5.377930   2.816524   0.000000
    11  Cl   3.978936   5.466624   6.290450   4.870686   3.184817
                   11
    11  Cl   0.000000
 Stoichiometry    C6HCl4(1-)
 Framework group  CS[SG(C6HCl4)]
 Deg. of freedom    19
 Full point group                 CS      NOp   2
 Largest Abelian subgroup         CS      NOp   2
 Largest concise Abelian subgroup C1      NOp   1
                         Standard orientation:                         
 ---------------------------------------------------------------------
 Center     Atomic      Atomic             Coordinates (Angstroms)
 Number     Number       Type             X           Y           Z
 ---------------------------------------------------------------------
      1          6           0        0.000000    1.350442    0.000000
      2          6           0       -1.193453    0.643041    0.000000
      3          6           0       -1.136389   -0.743981   -0.000000
      4          6           0        0.103504   -1.382513   -0.000000
      5          6           0        1.306484   -0.711707   -0.000000
      6          6           0        1.209944    0.659944    0.000000
      7         17           0        2.712252    1.642152    0.000000
      8         17           0       -0.118022    3.124215    0.000000
      9          1           0       -2.143136    1.158855    0.000000
     10         17           0       -2.674891   -1.607017   -0.000000
     11         17           0        0.104343   -3.162304   -0.000000
 ---------------------------------------------------------------------
 Rotational constants (GHZ):           1.1651365           0.4616872           0.3306619
 Standard basis: 6-311++G(d,p) (5D, 7F)
 There are   200 symmetry adapted cartesian basis functions of A'  symmetry.
 There are    69 symmetry adapted cartesian basis functions of A"  symmetry.
 There are   190 symmetry adapted basis functions of A'  symmetry.
 There are    69 symmetry adapted basis functions of A"  symmetry.
   259 basis functions,   437 primitive gaussians,   269 cartesian basis functions
    53 alpha electrons       53 beta electrons
       nuclear repulsion energy       804.6040465654 Hartrees.
 NAtoms=   11 NActive=   11 NUniq=   11 SFac= 1.00D+00 NAtFMM=   60 NAOKFM=F Big=F
 Integral buffers will be    131072 words long.
 Raffenetti 2 integral format.
 Two-electron integral symmetry is turned on.
 One-electron integrals computed using PRISM.
 NBasis=   259 RedAO= T EigKep=  1.29D-06  NBF=   190    69
 NBsUse=   258 1.00D-06 EigRej=  8.86D-07 NBFU=   189    69
 Initial guess from the checkpoint file:  "frequency_chks/Pentachlorobenzene_anion_product_Freq.chk"
 B after Tr=    -0.000000   -0.000000   -0.000000
         Rot=    1.000000   -0.000000   -0.000000   -0.000047 Ang=  -0.01 deg.
 Initial guess orbital symmetries:
       Occupied  (A') (A') (A') (A') (A') (A') (A') (A') (A') (A')
                 (A') (A') (A') (A') (A') (A') (A") (A') (A") (A')
                 (A') (A') (A") (A') (A") (A') (A') (A') (A') (A')
                 (A') (A') (A') (A') (A') (A') (A') (A') (A") (A')
                 (A') (A") (A') (A") (A') (A") (A') (A") (A') (A')
                 (A") (A") (A')
       Virtual   (A') (A') (A') (A") (A') (A") (A') (A') (A") (A')
                 (A") (A') (A") (A') (A') (A") (A') (A') (A') (A')
                 (A") (A') (A') (A") (A') (A') (A") (A") (A') (A')
                 (A') (A") (A') (A") (A') (A') (A") (A') (A') (A')
                 (A') (A') (A') (A') (A') (A') (A') (A') (A') (A')
                 (A') (A') (A') (A") (A') (A') (A") (A') (A') (A')
                 (A") (A') (A") (A') (A') (A") (A') (A') (A") (A")
                 (A') (A") (A") (A') (A') (A') (A") (A') (A') (A')
                 (A') (A") (A') (A') (A") (A') (A') (A") (A') (A')
                 (A") (A") (A") (A') (A') (A") (A') (A') (A') (A')
                 (A") (A') (A') (A') (A') (A") (A') (A') (A") (A')
                 (A') (A') (A') (A') (A") (A') (A") (A') (A") (A")
                 (A') (A') (A') (A') (A') (A") (A') (A') (A') (A")
                 (A') (A") (A') (A") (A") (A') (A') (A") (A') (A')
                 (A') (A") (A") (A') (A") (A') (A") (A") (A') (A')
                 (A') (A') (A') (A') (A') (A') (A') (A') (A") (A')
                 (A') (A") (A") (A") (A") (A') (A") (A') (A') (A')
                 (A') (A') (A') (A') (A') (A') (A') (A') (A') (A')
                 (A') (A') (A') (A') (A') (A') (A') (A') (A') (A")
                 (A") (A") (A") (A') (A') (A') (A') (A') (A') (A')
                 (A') (A') (A') (A') (A')
 Keep R1 ints in memory in symmetry-blocked form, NReq=864233843.
 Requested convergence on RMS density matrix=1.00D-08 within 128 cycles.
 Requested convergence on MAX density matrix=1.00D-06.
 Requested convergence on             energy=1.00D-06.
 No special actions if energy rises.
 SCF Done:  E(RM062X) =  -2070.00689468     A.U. after   16 cycles
            NFock= 16  Conv=0.75D-08     -V/T= 2.0023
 Calling FoFJK, ICntrl=      2127 FMM=F ISym2X=1 I1Cent= 0 IOpClX= 0 NMat=1 NMatS=1 NMatT=0.
 ***** Axes restored to original set *****
 -------------------------------------------------------------------
 Center     Atomic                   Forces (Hartrees/Bohr)
 Number     Number              X              Y              Z
 -------------------------------------------------------------------
      1        6           0.004210406    0.002600584   -0.000000000
      2        6           0.000464803    0.000002648   -0.000000000
      3        6          -0.000343243   -0.000085011    0.000000000
      4        6           0.004762297    0.002747679   -0.000000000
      5        6          -0.000321212    0.000217616   -0.000000000
      6        6           0.000288276   -0.000722284    0.000000000
      7       17          -0.000014661    0.000511436   -0.000000000
      8       17          -0.004607732   -0.002446314    0.000000000
      9        1          -0.000073775   -0.000029116    0.000000000
     10       17           0.000059640   -0.000067179    0.000000000
     11       17          -0.004424799   -0.002730058    0.000000000
 -------------------------------------------------------------------
 Cartesian Forces:  Max     0.004762297 RMS     0.001828562

 GradGradGradGradGradGradGradGradGradGradGradGradGradGradGradGradGradGrad
 Berny optimization.
 Using GEDIIS/GDIIS optimizer.
 FormGI is forming the generalized inverse of G from B-inverse, IUseBI=4.
 Internal  Forces:  Max     0.005215972 RMS     0.001079902
 Search for a local minimum.
 Step number  12 out of a maximum of   57
 All quantities printed in internal units (Hartrees-Bohrs-Radians)
 Mixed Optimization -- RFO/linear search
 Update second derivatives using D2CorX and points    6    7    8    9   10
                                                     11   12
 DE= -1.23D-05 DEPred=-9.03D-06 R= 1.36D+00
 TightC=F SS=  1.41D+00  RLast= 8.13D-03 DXNew= 2.2039D+00 2.4404D-02
 Trust test= 1.36D+00 RLast= 8.13D-03 DXMaxT set to 1.31D+00
 ITU=  1  1  1  1  1  1  1  1  0  0  1  0
 Use linear search instead of GDIIS.
     Eigenvalues ---    0.02237   0.02241   0.02246   0.02249   0.02252
     Eigenvalues ---    0.02262   0.02262   0.02262   0.13511   0.16277
     Eigenvalues ---    0.17670   0.23452   0.24820   0.24993   0.25296
     Eigenvalues ---    0.26304   0.29416   0.30800   0.32370   0.35708
     Eigenvalues ---    0.42960   0.43716   0.44647   0.48309   0.51540
     Eigenvalues ---    0.53953   6.93427
 RFO step:  Lambda=-8.13523045D-06 EMin= 2.23738410D-02
 Quartic linear search produced a step of  0.67469.
 Iteration  1 RMS(Cart)=  0.00066829 RMS(Int)=  0.00000027
 Iteration  2 RMS(Cart)=  0.00000040 RMS(Int)=  0.00000016
 ClnCor:  largest displacement from symmetrization is 1.94D-10 for atom     9.
 Variable       Old X    -DE/DX   Delta X   Delta X   Delta X     New X
                                 (Linear)    (Quad)   (Total)
    R1        2.62172   0.00006   0.00006   0.00011   0.00017   2.62189
    R2        2.63259  -0.00019   0.00052  -0.00030   0.00022   2.63281
    R3        3.35936  -0.00522  -0.00234  -0.00068  -0.00301   3.35634
    R4        2.62331   0.00015  -0.00026   0.00016  -0.00010   2.62320
    R5        2.04227  -0.00005   0.00004  -0.00008  -0.00004   2.04223
    R6        2.63551  -0.00005   0.00010  -0.00013  -0.00004   2.63548
    R7        3.33354   0.00007   0.00063   0.00015   0.00078   3.33432
    R8        2.60285   0.00011  -0.00050  -0.00012  -0.00062   2.60223
    R9        3.36332   0.00520  -0.00090   0.00072  -0.00018   3.36314
   R10        2.59846   0.00005   0.00071   0.00027   0.00098   2.59944
   R11        3.39187   0.00051  -0.00402   0.00030  -0.00372   3.38815
    A1        2.08795   0.00014   0.00053   0.00041   0.00093   2.08888
    A2        2.03942  -0.00014   0.00014  -0.00040  -0.00026   2.03916
    A3        2.15582   0.00000  -0.00067  -0.00001  -0.00067   2.15515
    A4        2.06474  -0.00015   0.00016  -0.00038  -0.00022   2.06452
    A5        2.10897   0.00015  -0.00028   0.00042   0.00013   2.10910
    A6        2.10948   0.00001   0.00012  -0.00004   0.00009   2.10957
    A7        2.08748  -0.00005   0.00002  -0.00013  -0.00011   2.08737
    A8        2.04090  -0.00005  -0.00016  -0.00016  -0.00032   2.04057
    A9        2.15481   0.00010   0.00014   0.00029   0.00043   2.15524
   A10        2.15735   0.00020  -0.00043   0.00058   0.00015   2.15750
   A11        2.04684  -0.00012   0.00009  -0.00043  -0.00034   2.04650
   A12        2.07900  -0.00007   0.00034  -0.00015   0.00019   2.07918
   A13        2.00920  -0.00024   0.00123  -0.00049   0.00074   2.00994
   A14        2.15965   0.00011  -0.00151   0.00002  -0.00149   2.15816
   A15        2.04397  -0.00002   0.00096   0.00033   0.00129   2.04526
   A16        2.07957  -0.00009   0.00055  -0.00035   0.00020   2.07977
    D1       -0.00000   0.00000   0.00000  -0.00000   0.00000   0.00000
    D2        3.14159   0.00000   0.00000   0.00000   0.00000   3.14159
    D3        3.14159   0.00000   0.00000  -0.00000   0.00000   3.14159
    D4        0.00000   0.00000   0.00000  -0.00000   0.00000   0.00000
    D5        0.00000   0.00000   0.00000   0.00000  -0.00000   0.00000
    D6        3.14159  -0.00000   0.00000  -0.00000   0.00000   3.14159
    D7        3.14159  -0.00000   0.00000   0.00000   0.00000   3.14159
    D8       -0.00000   0.00000   0.00000   0.00000   0.00000   0.00000
    D9       -0.00000   0.00000   0.00000  -0.00000   0.00000   0.00000
   D10        3.14159  -0.00000   0.00000   0.00000   0.00000   3.14159
   D11        3.14159  -0.00000   0.00000  -0.00000   0.00000   3.14159
   D12       -0.00000   0.00000   0.00000  -0.00000   0.00000   0.00000
   D13        0.00000  -0.00000   0.00000   0.00000  -0.00000   0.00000
   D14        3.14159  -0.00000   0.00000   0.00000   0.00000   3.14159
   D15        3.14159   0.00000   0.00000   0.00000   0.00000   3.14159
   D16       -0.00000   0.00000   0.00000   0.00000   0.00000   0.00000
   D17       -0.00000   0.00000   0.00000  -0.00000   0.00000   0.00000
   D18        3.14159   0.00000   0.00000  -0.00000   0.00000   3.14159
   D19       -0.00000  -0.00000   0.00000  -0.00000   0.00000   0.00000
   D20        3.14159   0.00000   0.00000   0.00000   0.00000   3.14159
         Item               Value     Threshold  Converged?
 Maximum Force            0.005216     0.000450     NO 
 RMS     Force            0.001080     0.000300     NO 
 Maximum Displacement     0.002502     0.001800     NO 
 RMS     Displacement     0.000668     0.001200     YES
 Predicted change in Energy=-6.397804D-06
 GradGradGradGradGradGradGradGradGradGradGradGradGradGradGradGradGradGrad

                          Input orientation:                          
 ---------------------------------------------------------------------
 Center     Atomic      Atomic             Coordinates (Angstroms)
 Number     Number       Type             X           Y           Z
 ---------------------------------------------------------------------
      1          6           0        1.185381    0.687056   -0.000000
      2          6           0        1.203989   -0.700263   -0.000000
      3          6           0       -0.009440   -1.374446    0.000000
      4          6           0       -1.200516   -0.648951    0.000000
      5          6           0       -1.255057    0.727010   -0.000000
      6          6           0       -0.034155    1.360707   -0.000000
      7         17           0        0.020001    3.152820   -0.000000
      8         17           0        2.759316    1.510013   -0.000000
      9          1           0        2.139203   -1.241824   -0.000000
     10         17           0        0.056456   -3.137664    0.000000
     11         17           0       -2.719604   -1.576148    0.000000
 ---------------------------------------------------------------------
                    Distance matrix (angstroms):
                    1          2          3          4          5
     1  C    0.000000
     2  C    1.387444   0.000000
     3  C    2.382727   1.388140   0.000000
     4  C    2.734486   2.405052   1.394635   0.000000
     5  C    2.440764   2.843240   2.442883   1.377041   0.000000
     6  C    1.393224   2.404287   2.735264   2.323601   1.375563
     7  Cl   2.727288   4.030890   4.527361   3.992883   2.740497
     8  Cl   1.776100   2.702659   3.998264   4.510144   4.090023
     9  H    2.151826   1.080700   2.152732   3.391934   3.923940
    10  Cl   3.987851   2.694022   1.764449   2.788130   4.081147
    11  Cl   4.513424   4.020169   2.717659   1.779697   2.729365
                    6          7          8          9         10
     6  C    0.000000
     7  Cl   1.792931   0.000000
     8  Cl   2.797459   3.194160   0.000000
     9  H    3.390671   4.878925   2.820842   0.000000
    10  Cl   4.499283   6.290589   5.376463   2.816388   0.000000
    11  Cl   3.979541   5.465214   6.288319   4.870295   3.185097
                   11
    11  Cl   0.000000
 Stoichiometry    C6HCl4(1-)
 Framework group  CS[SG(C6HCl4)]
 Deg. of freedom    19
 Full point group                 CS      NOp   2
 Largest Abelian subgroup         CS      NOp   2
 Largest concise Abelian subgroup C1      NOp   1
                         Standard orientation:                         
 ---------------------------------------------------------------------
 Center     Atomic      Atomic             Coordinates (Angstroms)
 Number     Number       Type             X           Y           Z
 ---------------------------------------------------------------------
      1          6           0        0.000000    1.350598   -0.000000
      2          6           0       -1.193510    0.643113   -0.000000
      3          6           0       -1.136100   -0.743839    0.000000
      4          6           0        0.104009   -1.381910    0.000000
      5          6           0        1.306563   -0.711010    0.000000
      6          6           0        1.210709    0.661209   -0.000000
      7         17           0        2.711692    1.641848   -0.000000
      8         17           0       -0.118433    3.122745   -0.000000
      9          1           0       -2.143258    1.158761   -0.000000
     10         17           0       -2.675023   -1.606970    0.000000
     11         17           0        0.104895   -3.161607    0.000000
 ---------------------------------------------------------------------
 Rotational constants (GHZ):           1.1652660           0.4619106           0.3307869
 Standard basis: 6-311++G(d,p) (5D, 7F)
 There are   200 symmetry adapted cartesian basis functions of A'  symmetry.
 There are    69 symmetry adapted cartesian basis functions of A"  symmetry.
 There are   190 symmetry adapted basis functions of A'  symmetry.
 There are    69 symmetry adapted basis functions of A"  symmetry.
   259 basis functions,   437 primitive gaussians,   269 cartesian basis functions
    53 alpha electrons       53 beta electrons
       nuclear repulsion energy       804.7427824746 Hartrees.
 NAtoms=   11 NActive=   11 NUniq=   11 SFac= 1.00D+00 NAtFMM=   60 NAOKFM=F Big=F
 Integral buffers will be    131072 words long.
 Raffenetti 2 integral format.
 Two-electron integral symmetry is turned on.
 One-electron integrals computed using PRISM.
 NBasis=   259 RedAO= T EigKep=  1.29D-06  NBF=   190    69
 NBsUse=   258 1.00D-06 EigRej=  8.84D-07 NBFU=   189    69
 Initial guess from the checkpoint file:  "frequency_chks/Pentachlorobenzene_anion_product_Freq.chk"
 B after Tr=     0.000000   -0.000000    0.000000
         Rot=    1.000000   -0.000000    0.000000   -0.000046 Ang=  -0.01 deg.
 Initial guess orbital symmetries:
       Occupied  (A') (A') (A') (A') (A') (A') (A') (A') (A') (A')
                 (A') (A') (A') (A') (A') (A') (A") (A') (A") (A')
                 (A') (A') (A") (A') (A") (A') (A') (A') (A') (A')
                 (A') (A') (A') (A') (A') (A') (A') (A') (A") (A')
                 (A') (A") (A') (A") (A') (A") (A') (A") (A') (A')
                 (A") (A") (A')
       Virtual   (A') (A') (A') (A") (A') (A") (A') (A') (A") (A')
                 (A") (A') (A") (A') (A') (A") (A') (A') (A') (A')
                 (A") (A') (A') (A") (A') (A') (A") (A") (A') (A')
                 (A') (A") (A') (A") (A') (A') (A") (A') (A') (A')
                 (A') (A') (A') (A') (A') (A') (A') (A') (A') (A')
                 (A') (A') (A') (A") (A') (A') (A") (A') (A') (A')
                 (A") (A') (A") (A') (A') (A") (A') (A') (A") (A")
                 (A') (A") (A") (A') (A') (A') (A") (A') (A') (A')
                 (A') (A") (A') (A') (A") (A') (A') (A") (A') (A')
                 (A") (A") (A") (A') (A') (A") (A') (A') (A') (A')
                 (A") (A') (A') (A') (A') (A") (A') (A') (A") (A')
                 (A') (A') (A') (A') (A") (A') (A") (A') (A") (A")
                 (A') (A') (A') (A') (A') (A") (A') (A') (A') (A")
                 (A') (A") (A') (A") (A") (A') (A') (A") (A') (A')
                 (A') (A") (A") (A') (A") (A') (A") (A") (A') (A')
                 (A') (A') (A') (A') (A') (A') (A') (A') (A") (A')
                 (A') (A") (A") (A") (A") (A') (A") (A') (A') (A')
                 (A') (A') (A') (A') (A') (A') (A') (A') (A') (A')
                 (A') (A') (A') (A') (A') (A') (A') (A') (A') (A")
                 (A") (A") (A") (A') (A') (A') (A') (A') (A') (A')
                 (A') (A') (A') (A') (A')
 Keep R1 ints in memory in symmetry-blocked form, NReq=864233843.
 Requested convergence on RMS density matrix=1.00D-08 within 128 cycles.
 Requested convergence on MAX density matrix=1.00D-06.
 Requested convergence on             energy=1.00D-06.
 No special actions if energy rises.
 SCF Done:  E(RM062X) =  -2070.00690478     A.U. after   18 cycles
            NFock= 18  Conv=0.61D-08     -V/T= 2.0023
 Calling FoFJK, ICntrl=      2127 FMM=F ISym2X=1 I1Cent= 0 IOpClX= 0 NMat=1 NMatS=1 NMatT=0.
 ***** Axes restored to original set *****
 -------------------------------------------------------------------
 Center     Atomic                   Forces (Hartrees/Bohr)
 Number     Number              X              Y              Z
 -------------------------------------------------------------------
      1        6           0.003871293    0.002513265   -0.000000000
      2        6           0.000278921    0.000035314   -0.000000000
      3        6          -0.000222297   -0.000193734    0.000000000
      4        6           0.004824185    0.002554213   -0.000000000
      5        6          -0.000281142    0.000595689   -0.000000000
      6        6           0.000041648   -0.001683685    0.000000000
      7       17           0.000048017    0.000996251   -0.000000000
      8       17          -0.003991669   -0.002111093    0.000000000
      9        1          -0.000059190   -0.000015982    0.000000000
     10       17           0.000015302    0.000075521   -0.000000000
     11       17          -0.004525069   -0.002765759    0.000000000
 -------------------------------------------------------------------
 Cartesian Forces:  Max     0.004824185 RMS     0.001775736

 GradGradGradGradGradGradGradGradGradGradGradGradGradGradGradGradGradGrad
 Berny optimization.
 Using GEDIIS/GDIIS optimizer.
 FormGI is forming the generalized inverse of G from B-inverse, IUseBI=4.
 Internal  Forces:  Max     0.005302505 RMS     0.001031863
 Search for a local minimum.
 Step number  13 out of a maximum of   57
 All quantities printed in internal units (Hartrees-Bohrs-Radians)
 Mixed Optimization -- RFO/linear search
 Update second derivatives using D2CorX and points    6    7    8    9   10
                                                     11   12   13
 DE= -1.01D-05 DEPred=-6.40D-06 R= 1.58D+00
 TightC=F SS=  1.41D+00  RLast= 5.60D-03 DXNew= 2.2039D+00 1.6808D-02
 Trust test= 1.58D+00 RLast= 5.60D-03 DXMaxT set to 1.31D+00
 ITU=  1  1  1  1  1  1  1  1  1  0  0  1  0
 Use linear search instead of GDIIS.
     Eigenvalues ---    0.02237   0.02241   0.02246   0.02249   0.02252
     Eigenvalues ---    0.02262   0.02262   0.02262   0.13489   0.16117
     Eigenvalues ---    0.17689   0.22484   0.24592   0.25039   0.25296
     Eigenvalues ---    0.26224   0.29223   0.30192   0.32276   0.35718
     Eigenvalues ---    0.42891   0.43615   0.44680   0.48314   0.51345
     Eigenvalues ---    0.54258   3.80688
 RFO step:  Lambda=-1.29032284D-05 EMin= 2.23738000D-02
 Quartic linear search produced a step of  1.51780.
 Iteration  1 RMS(Cart)=  0.00108212 RMS(Int)=  0.00000052
 Iteration  2 RMS(Cart)=  0.00000087 RMS(Int)=  0.00000020
 ClnCor:  largest displacement from symmetrization is 8.86D-14 for atom    10.
 Variable       Old X    -DE/DX   Delta X   Delta X   Delta X     New X
                                 (Linear)    (Quad)   (Total)
    R1        2.62189   0.00005   0.00026   0.00019   0.00045   2.62234
    R2        2.63281  -0.00021   0.00033  -0.00041  -0.00008   2.63273
    R3        3.35634  -0.00451  -0.00457  -0.00037  -0.00494   3.35140
    R4        2.62320   0.00016  -0.00016   0.00022   0.00006   2.62327
    R5        2.04223  -0.00004  -0.00007  -0.00007  -0.00013   2.04210
    R6        2.63548  -0.00003  -0.00005  -0.00002  -0.00007   2.63540
    R7        3.33432  -0.00008   0.00119   0.00003   0.00122   3.33554
    R8        2.60223   0.00027  -0.00094  -0.00015  -0.00109   2.60114
    R9        3.36314   0.00530  -0.00027   0.00191   0.00164   3.36478
   R10        2.59944  -0.00011   0.00149   0.00027   0.00175   2.60119
   R11        3.38815   0.00100  -0.00564   0.00060  -0.00504   3.38311
    A1        2.08888  -0.00005   0.00142   0.00036   0.00178   2.09066
    A2        2.03916  -0.00003  -0.00040  -0.00020  -0.00060   2.03856
    A3        2.15515   0.00008  -0.00102  -0.00016  -0.00118   2.15397
    A4        2.06452  -0.00009  -0.00034  -0.00031  -0.00064   2.06387
    A5        2.10910   0.00010   0.00020   0.00036   0.00057   2.10967
    A6        2.10957  -0.00001   0.00013  -0.00006   0.00008   2.10964
    A7        2.08737  -0.00002  -0.00017  -0.00031  -0.00048   2.08689
    A8        2.04057  -0.00000  -0.00049  -0.00017  -0.00066   2.03992
    A9        2.15524   0.00002   0.00066   0.00047   0.00113   2.15638
   A10        2.15750   0.00013   0.00023   0.00072   0.00095   2.15845
   A11        2.04650  -0.00005  -0.00051  -0.00040  -0.00092   2.04558
   A12        2.07918  -0.00008   0.00028  -0.00032  -0.00003   2.07915
   A13        2.00994  -0.00035   0.00112  -0.00058   0.00054   2.01048
   A14        2.15816   0.00037  -0.00226   0.00012  -0.00214   2.15602
   A15        2.04526  -0.00023   0.00196   0.00001   0.00197   2.04723
   A16        2.07977  -0.00014   0.00030  -0.00013   0.00017   2.07994
    D1        0.00000   0.00000   0.00000   0.00000  -0.00000   0.00000
    D2        3.14159  -0.00000   0.00000  -0.00000   0.00000   3.14159
    D3        3.14159   0.00000   0.00000  -0.00000   0.00000   3.14159
    D4       -0.00000  -0.00000   0.00000  -0.00000   0.00000   0.00000
    D5        0.00000   0.00000   0.00000   0.00000   0.00000   0.00000
    D6        3.14159   0.00000   0.00000   0.00000   0.00000   3.14159
    D7        3.14159   0.00000   0.00000   0.00000   0.00000   3.14159
    D8       -0.00000   0.00000   0.00000   0.00000   0.00000   0.00000
    D9       -0.00000  -0.00000   0.00000  -0.00000   0.00000   0.00000
   D10        3.14159  -0.00000   0.00000  -0.00000   0.00000   3.14159
   D11        3.14159  -0.00000   0.00000  -0.00000   0.00000   3.14159
   D12        0.00000  -0.00000   0.00000  -0.00000   0.00000   0.00000
   D13        0.00000   0.00000   0.00000   0.00000   0.00000   0.00000
   D14        3.14159  -0.00000   0.00000   0.00000   0.00000   3.14159
   D15        3.14159   0.00000   0.00000   0.00000   0.00000   3.14159
   D16       -0.00000  -0.00000   0.00000   0.00000   0.00000   0.00000
   D17       -0.00000   0.00000   0.00000   0.00000   0.00000   0.00000
   D18        3.14159   0.00000   0.00000   0.00000   0.00000   3.14159
   D19        0.00000  -0.00000   0.00000  -0.00000  -0.00000   0.00000
   D20        3.14159  -0.00000   0.00000  -0.00000   0.00000   3.14159
         Item               Value     Threshold  Converged?
 Maximum Force            0.005303     0.000450     NO 
 RMS     Force            0.001032     0.000300     NO 
 Maximum Displacement     0.004547     0.001800     NO 
 RMS     Displacement     0.001082     0.001200     YES
 Predicted change in Energy=-1.145486D-05
 GradGradGradGradGradGradGradGradGradGradGradGradGradGradGradGradGradGrad

                          Input orientation:                          
 ---------------------------------------------------------------------
 Center     Atomic      Atomic             Coordinates (Angstroms)
 Number     Number       Type             X           Y           Z
 ---------------------------------------------------------------------
      1          6           0        1.185119    0.687100   -0.000000
      2          6           0        1.204267   -0.700452   -0.000000
      3          6           0       -0.009363   -1.374339    0.000000
      4          6           0       -1.199873   -0.647989    0.000000
      5          6           0       -1.254688    0.727383   -0.000000
      6          6           0       -0.033441    1.362426   -0.000000
      7         17           0        0.019592    3.151905   -0.000000
      8         17           0        2.756910    1.508511   -0.000000
      9          1           0        2.139324   -1.242146   -0.000000
     10         17           0        0.057262   -3.138174    0.000000
     11         17           0       -2.719535   -1.575915    0.000000
 ---------------------------------------------------------------------
                    Distance matrix (angstroms):
                    1          2          3          4          5
     1  C    0.000000
     2  C    1.387684   0.000000
     3  C    2.382502   1.388172   0.000000
     4  C    2.733249   2.404713   1.394596   0.000000
     5  C    2.440140   2.843444   2.442963   1.376464   0.000000
     6  C    1.393181   2.405699   2.736870   2.324292   1.376490
     7  Cl   2.726484   4.030398   4.526336   3.990776   2.738996
     8  Cl   1.773484   2.700041   3.995384   4.506288   4.086941
     9  H    2.152324   1.080631   2.152750   3.391646   3.924075
    10  Cl   3.988080   2.694087   1.765093   2.789518   4.082124
    11  Cl   4.513043   4.020281   2.717658   1.780566   2.729643
                    6          7          8          9         10
     6  C    0.000000
     7  Cl   1.790265   0.000000
     8  Cl   2.794173   3.192750   0.000000
     9  H    3.391858   4.878621   2.819136   0.000000
    10  Cl   4.501513   6.290191   5.373991   2.816009   0.000000
    11  Cl   3.981073   5.463981   6.285311   4.870309   3.186104
                   11
    11  Cl   0.000000
 Stoichiometry    C6HCl4(1-)
 Framework group  CS[SG(C6HCl4)]
 Deg. of freedom    19
 Full point group                 CS      NOp   2
 Largest Abelian subgroup         CS      NOp   2
 Largest concise Abelian subgroup C1      NOp   1
                         Standard orientation:                         
 ---------------------------------------------------------------------
 Center     Atomic      Atomic             Coordinates (Angstroms)
 Number     Number       Type             X           Y           Z
 ---------------------------------------------------------------------
      1          6           0        0.000000    1.350715    0.000000
      2          6           0       -1.193838    0.643311    0.000000
      3          6           0       -1.135769   -0.743646    0.000000
      4          6           0        0.104912   -1.380520   -0.000000
      5          6           0        1.306961   -0.709900   -0.000000
      6          6           0        1.211778    0.663295   -0.000000
      7         17           0        2.710888    1.641926   -0.000000
      8         17           0       -0.119017    3.120201    0.000000
      9          1           0       -2.143728    1.158550    0.000000
     10         17           0       -2.675412   -1.606810    0.000000
     11         17           0        0.105862   -3.161086   -0.000000
 ---------------------------------------------------------------------
 Rotational constants (GHZ):           1.1653755           0.4622009           0.3309446
 Standard basis: 6-311++G(d,p) (5D, 7F)
 There are   200 symmetry adapted cartesian basis functions of A'  symmetry.
 There are    69 symmetry adapted cartesian basis functions of A"  symmetry.
 There are   190 symmetry adapted basis functions of A'  symmetry.
 There are    69 symmetry adapted basis functions of A"  symmetry.
   259 basis functions,   437 primitive gaussians,   269 cartesian basis functions
    53 alpha electrons       53 beta electrons
       nuclear repulsion energy       804.9102240804 Hartrees.
 NAtoms=   11 NActive=   11 NUniq=   11 SFac= 1.00D+00 NAtFMM=   60 NAOKFM=F Big=F
 Integral buffers will be    131072 words long.
 Raffenetti 2 integral format.
 Two-electron integral symmetry is turned on.
 One-electron integrals computed using PRISM.
 NBasis=   259 RedAO= T EigKep=  1.29D-06  NBF=   190    69
 NBsUse=   258 1.00D-06 EigRej=  8.82D-07 NBFU=   189    69
 Initial guess from the checkpoint file:  "frequency_chks/Pentachlorobenzene_anion_product_Freq.chk"
 B after Tr=     0.000000   -0.000000    0.000000
         Rot=    1.000000    0.000000   -0.000000   -0.000085 Ang=  -0.01 deg.
 Initial guess orbital symmetries:
       Occupied  (A') (A') (A') (A') (A') (A') (A') (A') (A') (A')
                 (A') (A') (A') (A') (A') (A') (A") (A') (A") (A')
                 (A') (A') (A") (A') (A") (A') (A') (A') (A') (A')
                 (A') (A') (A') (A') (A') (A') (A') (A') (A") (A')
                 (A') (A") (A') (A") (A') (A") (A') (A") (A') (A')
                 (A") (A") (A')
       Virtual   (A') (A') (A') (A") (A') (A") (A') (A') (A") (A')
                 (A") (A') (A") (A') (A') (A") (A') (A') (A') (A')
                 (A") (A') (A') (A") (A') (A') (A") (A") (A') (A')
                 (A') (A") (A') (A") (A') (A') (A") (A') (A') (A')
                 (A') (A') (A') (A') (A') (A') (A') (A') (A') (A')
                 (A') (A') (A') (A") (A') (A') (A") (A') (A') (A')
                 (A") (A') (A") (A') (A') (A") (A') (A') (A") (A")
                 (A') (A") (A") (A') (A') (A') (A") (A') (A') (A')
                 (A') (A") (A') (A') (A") (A') (A') (A") (A') (A')
                 (A") (A") (A") (A') (A') (A") (A') (A') (A') (A')
                 (A") (A') (A') (A') (A') (A") (A') (A') (A") (A')
                 (A') (A') (A') (A') (A") (A') (A") (A') (A") (A")
                 (A') (A') (A') (A') (A') (A") (A') (A') (A') (A")
                 (A') (A") (A') (A") (A") (A') (A') (A") (A') (A')
                 (A') (A") (A") (A') (A") (A') (A") (A") (A') (A')
                 (A') (A') (A') (A') (A') (A') (A') (A') (A") (A')
                 (A') (A") (A") (A") (A") (A') (A") (A') (A') (A')
                 (A') (A') (A') (A') (A') (A') (A') (A') (A') (A')
                 (A') (A') (A') (A') (A') (A') (A') (A') (A') (A")
                 (A") (A") (A") (A') (A') (A') (A') (A') (A') (A')
                 (A') (A') (A') (A') (A')
 Keep R1 ints in memory in symmetry-blocked form, NReq=864233843.
 Requested convergence on RMS density matrix=1.00D-08 within 128 cycles.
 Requested convergence on MAX density matrix=1.00D-06.
 Requested convergence on             energy=1.00D-06.
 No special actions if energy rises.
 SCF Done:  E(RM062X) =  -2070.00692204     A.U. after   14 cycles
            NFock= 14  Conv=0.80D-08     -V/T= 2.0023
 Calling FoFJK, ICntrl=      2127 FMM=F ISym2X=1 I1Cent= 0 IOpClX= 0 NMat=1 NMatS=1 NMatT=0.
 ***** Axes restored to original set *****
 -------------------------------------------------------------------
 Center     Atomic                   Forces (Hartrees/Bohr)
 Number     Number              X              Y              Z
 -------------------------------------------------------------------
      1        6           0.003511206    0.002251610   -0.000000000
      2        6          -0.000211441    0.000112548    0.000000000
      3        6           0.000097212   -0.000298128    0.000000000
      4        6           0.004568365    0.002060373   -0.000000000
      5        6          -0.000065768    0.001144947   -0.000000000
      6        6          -0.000555548   -0.003022131    0.000000000
      7       17           0.000137164    0.001625758   -0.000000000
      8       17          -0.002962654   -0.001557605    0.000000000
      9        1          -0.000009404    0.000020212   -0.000000000
     10       17          -0.000096172    0.000336937   -0.000000000
     11       17          -0.004412959   -0.002674521    0.000000000
 -------------------------------------------------------------------
 Cartesian Forces:  Max     0.004568365 RMS     0.001688124

 GradGradGradGradGradGradGradGradGradGradGradGradGradGradGradGradGradGrad
 Berny optimization.
 Using GEDIIS/GDIIS optimizer.
 FormGI is forming the generalized inverse of G from B-inverse, IUseBI=4.
 Internal  Forces:  Max     0.005159276 RMS     0.000950938
 Search for a local minimum.
 Step number  14 out of a maximum of   57
 All quantities printed in internal units (Hartrees-Bohrs-Radians)
 Mixed Optimization -- En-DIIS/RFO-DIIS
 Update second derivatives using D2CorX and points    6    7    8    9   10
                                                     11   12   13   14
 DE= -1.73D-05 DEPred=-1.15D-05 R= 1.51D+00
 TightC=F SS=  1.41D+00  RLast= 8.75D-03 DXNew= 2.2039D+00 2.6264D-02
 Trust test= 1.51D+00 RLast= 8.75D-03 DXMaxT set to 1.31D+00
 ITU=  1  1  1  1  1  1  1  1  1  1  0  0  1  0
 Use linear search instead of GDIIS.
     Eigenvalues ---    0.02237   0.02241   0.02246   0.02249   0.02252
     Eigenvalues ---    0.02262   0.02262   0.02262   0.13547   0.15935
     Eigenvalues ---    0.17726   0.21936   0.24417   0.25118   0.25290
     Eigenvalues ---    0.26134   0.29559   0.30185   0.32311   0.35722
     Eigenvalues ---    0.42781   0.43567   0.44749   0.48326   0.51184
     Eigenvalues ---    0.54449   2.32275
 RFO step:  Lambda=-1.93301709D-05 EMin= 2.23737281D-02
 Quartic linear search produced a step of  0.81049.
 Iteration  1 RMS(Cart)=  0.00103667 RMS(Int)=  0.00000043
 Iteration  2 RMS(Cart)=  0.00000069 RMS(Int)=  0.00000008
 ClnCor:  largest displacement from symmetrization is 5.32D-10 for atom     9.
 Variable       Old X    -DE/DX   Delta X   Delta X   Delta X     New X
                                 (Linear)    (Quad)   (Total)
    R1        2.62234  -0.00003   0.00037   0.00022   0.00059   2.62293
    R2        2.63273  -0.00010  -0.00007  -0.00051  -0.00058   2.63215
    R3        3.35140  -0.00335  -0.00401  -0.00003  -0.00404   3.34736
    R4        2.62327   0.00009   0.00005   0.00037   0.00042   2.62369
    R5        2.04210  -0.00002  -0.00011  -0.00010  -0.00021   2.04189
    R6        2.63540  -0.00004  -0.00006  -0.00009  -0.00015   2.63526
    R7        3.33554  -0.00034   0.00099  -0.00013   0.00085   3.33640
    R8        2.60114   0.00047  -0.00088  -0.00025  -0.00113   2.60001
    R9        3.36478   0.00516   0.00133   0.00306   0.00439   3.36917
   R10        2.60119  -0.00043   0.00142   0.00012   0.00154   2.60273
   R11        3.38311   0.00163  -0.00408   0.00193  -0.00215   3.38096
    A1        2.09066  -0.00043   0.00144   0.00039   0.00184   2.09249
    A2        2.03856   0.00019  -0.00049  -0.00055  -0.00103   2.03753
    A3        2.15397   0.00025  -0.00096   0.00015  -0.00081   2.15316
    A4        2.06387   0.00007  -0.00052  -0.00049  -0.00101   2.06286
    A5        2.10967  -0.00004   0.00046   0.00061   0.00107   2.11074
    A6        2.10964  -0.00003   0.00006  -0.00012  -0.00006   2.10959
    A7        2.08689   0.00007  -0.00039  -0.00043  -0.00081   2.08608
    A8        2.03992   0.00012  -0.00053  -0.00018  -0.00071   2.03920
    A9        2.15638  -0.00019   0.00092   0.00061   0.00153   2.15790
   A10        2.15845  -0.00003   0.00077   0.00112   0.00189   2.16035
   A11        2.04558   0.00006  -0.00074  -0.00069  -0.00143   2.04415
   A12        2.07915  -0.00003  -0.00003  -0.00044  -0.00046   2.07869
   A13        2.01048  -0.00045   0.00043  -0.00102  -0.00058   2.00990
   A14        2.15602   0.00076  -0.00174   0.00042  -0.00132   2.15470
   A15        2.04723  -0.00055   0.00160   0.00002   0.00162   2.04885
   A16        2.07994  -0.00021   0.00014  -0.00044  -0.00030   2.07964
    D1        0.00000  -0.00000   0.00000  -0.00000   0.00000   0.00000
    D2        3.14159  -0.00000   0.00000  -0.00000   0.00000   3.14159
    D3        3.14159  -0.00000   0.00000  -0.00000   0.00000   3.14159
    D4       -0.00000  -0.00000   0.00000  -0.00000   0.00000   0.00000
    D5       -0.00000   0.00000   0.00000   0.00000   0.00000   0.00000
    D6        3.14159  -0.00000   0.00000  -0.00000   0.00000   3.14159
    D7        3.14159   0.00000   0.00000   0.00000   0.00000   3.14159
    D8        0.00000  -0.00000   0.00000   0.00000   0.00000   0.00000
    D9       -0.00000  -0.00000   0.00000   0.00000   0.00000   0.00000
   D10        3.14159  -0.00000   0.00000   0.00000   0.00000   3.14159
   D11        3.14159  -0.00000   0.00000  -0.00000   0.00000   3.14159
   D12        0.00000   0.00000   0.00000   0.00000  -0.00000   0.00000
   D13        0.00000   0.00000   0.00000   0.00000   0.00000   0.00000
   D14        3.14159   0.00000   0.00000   0.00000   0.00000   3.14159
   D15        3.14159   0.00000   0.00000  -0.00000   0.00000   3.14159
   D16        0.00000   0.00000   0.00000   0.00000   0.00000   0.00000
   D17       -0.00000  -0.00000   0.00000  -0.00000   0.00000   0.00000
   D18        3.14159  -0.00000   0.00000  -0.00000   0.00000   3.14159
   D19        0.00000  -0.00000   0.00000   0.00000   0.00000   0.00000
   D20        3.14159   0.00000   0.00000   0.00000   0.00000   3.14159
         Item               Value     Threshold  Converged?
 Maximum Force            0.005159     0.000450     NO 
 RMS     Force            0.000951     0.000300     NO 
 Maximum Displacement     0.003897     0.001800     NO 
 RMS     Displacement     0.001037     0.001200     YES
 Predicted change in Energy=-1.365590D-05
 GradGradGradGradGradGradGradGradGradGradGradGradGradGradGradGradGradGrad

                          Input orientation:                          
 ---------------------------------------------------------------------
 Center     Atomic      Atomic             Coordinates (Angstroms)
 Number     Number       Type             X           Y           Z
 ---------------------------------------------------------------------
      1          6           0        1.184686    0.687107   -0.000000
      2          6           0        1.204819   -0.700743   -0.000000
      3          6           0       -0.009212   -1.374366    0.000000
      4          6           0       -1.198841   -0.646724    0.000000
      5          6           0       -1.254693    0.728008   -0.000000
      6          6           0       -0.032842    1.363660   -0.000000
      7         17           0        0.019274    3.152026   -0.000000
      8         17           0        2.754848    1.507019   -0.000000
      9          1           0        2.139585   -1.242722   -0.000000
     10         17           0        0.058151   -3.138625    0.000000
     11         17           0       -2.720199   -1.576330    0.000000
 ---------------------------------------------------------------------
                    Distance matrix (angstroms):
                    1          2          3          4          5
     1  C    0.000000
     2  C    1.387996   0.000000
     3  C    2.382239   1.388394   0.000000
     4  C    2.731356   2.404267   1.394518   0.000000
     5  C    2.439722   2.844386   2.443604   1.375866   0.000000
     6  C    1.392874   2.406982   2.738127   2.324048   1.377307
     7  Cl   2.726538   4.031048   4.526481   3.989274   2.738404
     8  Cl   1.771346   2.697555   3.992794   4.502252   4.084517
     9  H    2.153154   1.080522   2.152825   3.391210   3.924908
    10  Cl   3.988145   2.694089   1.765544   2.790985   4.083430
    11  Cl   4.513455   4.021495   2.718500   1.782890   2.730875
                    6          7          8          9         10
     6  C    0.000000
     7  Cl   1.789125   0.000000
     8  Cl   2.791374   3.192086   0.000000
     9  H    3.393032   4.879501   2.817734   0.000000
    10  Cl   4.503204   6.290771   5.371609   2.815460   0.000000
    11  Cl   3.983143   5.464619   6.283565   4.871222   3.187475
                   11
    11  Cl   0.000000
 Stoichiometry    C6HCl4(1-)
 Framework group  CS[SG(C6HCl4)]
 Deg. of freedom    19
 Full point group                 CS      NOp   2
 Largest Abelian subgroup         CS      NOp   2
 Largest concise Abelian subgroup C1      NOp   1
                         Standard orientation:                         
 ---------------------------------------------------------------------
 Center     Atomic      Atomic             Coordinates (Angstroms)
 Number     Number       Type             X           Y           Z
 ---------------------------------------------------------------------
      1          6           0        0.000000    1.350660   -0.000000
      2          6           0       -1.194456    0.643691   -0.000000
      3          6           0       -1.135662   -0.743458   -0.000000
      4          6           0        0.105796   -1.378646    0.000000
      5          6           0        1.307699   -0.708992    0.000000
      6          6           0        1.212431    0.665016    0.000000
      7         17           0        2.710864    1.642600    0.000000
      8         17           0       -0.119818    3.117949   -0.000000
      9          1           0       -2.144547    1.158332   -0.000000
     10         17           0       -2.675869   -1.606539   -0.000000
     11         17           0        0.106571   -3.161536    0.000000
 ---------------------------------------------------------------------
 Rotational constants (GHZ):           1.1651050           0.4623445           0.3309964
 Standard basis: 6-311++G(d,p) (5D, 7F)
 There are   200 symmetry adapted cartesian basis functions of A'  symmetry.
 There are    69 symmetry adapted cartesian basis functions of A"  symmetry.
 There are   190 symmetry adapted basis functions of A'  symmetry.
 There are    69 symmetry adapted basis functions of A"  symmetry.
   259 basis functions,   437 primitive gaussians,   269 cartesian basis functions
    53 alpha electrons       53 beta electrons
       nuclear repulsion energy       804.9420206130 Hartrees.
 NAtoms=   11 NActive=   11 NUniq=   11 SFac= 1.00D+00 NAtFMM=   60 NAOKFM=F Big=F
 Integral buffers will be    131072 words long.
 Raffenetti 2 integral format.
 Two-electron integral symmetry is turned on.
 One-electron integrals computed using PRISM.
 NBasis=   259 RedAO= T EigKep=  1.29D-06  NBF=   190    69
 NBsUse=   258 1.00D-06 EigRej=  8.83D-07 NBFU=   189    69
 Initial guess from the checkpoint file:  "frequency_chks/Pentachlorobenzene_anion_product_Freq.chk"
 B after Tr=    -0.000000    0.000000   -0.000000
         Rot=    1.000000    0.000000   -0.000000   -0.000080 Ang=  -0.01 deg.
 Initial guess orbital symmetries:
       Occupied  (A') (A') (A') (A') (A') (A') (A') (A') (A') (A')
                 (A') (A') (A') (A') (A') (A') (A") (A') (A") (A')
                 (A') (A') (A") (A') (A") (A') (A') (A') (A') (A')
                 (A') (A') (A') (A') (A') (A') (A') (A') (A") (A')
                 (A') (A") (A') (A") (A') (A") (A') (A") (A') (A')
                 (A") (A") (A')
       Virtual   (A') (A') (A') (A") (A') (A") (A') (A') (A") (A')
                 (A") (A') (A") (A') (A') (A") (A') (A') (A') (A')
                 (A") (A') (A') (A") (A') (A') (A") (A") (A') (A')
                 (A') (A") (A') (A") (A') (A') (A") (A') (A') (A')
                 (A') (A') (A') (A') (A') (A') (A') (A') (A') (A')
                 (A') (A') (A') (A") (A') (A') (A") (A') (A') (A')
                 (A") (A') (A") (A') (A') (A") (A') (A') (A") (A")
                 (A') (A") (A") (A') (A') (A') (A") (A') (A') (A')
                 (A') (A") (A') (A') (A") (A') (A') (A") (A') (A')
                 (A") (A") (A") (A') (A') (A") (A') (A') (A') (A')
                 (A") (A') (A') (A') (A') (A") (A') (A') (A") (A')
                 (A') (A') (A') (A') (A") (A') (A") (A') (A") (A")
                 (A') (A') (A') (A') (A') (A") (A') (A') (A') (A")
                 (A') (A") (A') (A") (A") (A') (A') (A") (A') (A')
                 (A') (A") (A") (A') (A") (A') (A") (A") (A') (A')
                 (A') (A') (A') (A') (A') (A') (A') (A') (A") (A')
                 (A') (A") (A") (A") (A") (A') (A") (A') (A') (A')
                 (A') (A') (A') (A') (A') (A') (A') (A') (A') (A')
                 (A') (A') (A') (A') (A') (A') (A') (A') (A') (A")
                 (A") (A") (A") (A') (A') (A') (A') (A') (A') (A')
                 (A') (A') (A') (A') (A')
 Keep R1 ints in memory in symmetry-blocked form, NReq=864233843.
 Requested convergence on RMS density matrix=1.00D-08 within 128 cycles.
 Requested convergence on MAX density matrix=1.00D-06.
 Requested convergence on             energy=1.00D-06.
 No special actions if energy rises.
 SCF Done:  E(RM062X) =  -2070.00694379     A.U. after   17 cycles
            NFock= 17  Conv=0.63D-08     -V/T= 2.0023
 Calling FoFJK, ICntrl=      2127 FMM=F ISym2X=1 I1Cent= 0 IOpClX= 0 NMat=1 NMatS=1 NMatT=0.
 ***** Axes restored to original set *****
 -------------------------------------------------------------------
 Center     Atomic                   Forces (Hartrees/Bohr)
 Number     Number              X              Y              Z
 -------------------------------------------------------------------
      1        6           0.003495757    0.001898052   -0.000000000
      2        6          -0.000937156    0.000195297    0.000000000
      3        6           0.000562744   -0.000286032   -0.000000000
      4        6           0.003792351    0.001334542   -0.000000000
      5        6           0.000321824    0.001505088   -0.000000000
      6        6          -0.001280374   -0.003698783    0.000000000
      7       17           0.000238029    0.001802867   -0.000000000
      8       17          -0.002121842   -0.001053857    0.000000000
      9        1           0.000074179    0.000076659   -0.000000000
     10       17          -0.000236240    0.000583663   -0.000000000
     11       17          -0.003909274   -0.002357496    0.000000000
 -------------------------------------------------------------------
 Cartesian Forces:  Max     0.003909274 RMS     0.001568225

 GradGradGradGradGradGradGradGradGradGradGradGradGradGradGradGradGradGrad
 Berny optimization.
 Using GEDIIS/GDIIS optimizer.
 FormGI is forming the generalized inverse of G from B-inverse, IUseBI=4.
 Internal  Forces:  Max     0.004564183 RMS     0.000860187
 Search for a local minimum.
 Step number  15 out of a maximum of   57
 All quantities printed in internal units (Hartrees-Bohrs-Radians)
 Mixed Optimization -- En-DIIS/RFO-DIIS
 Swapping is turned off.
 Update second derivatives using D2CorX and points    6    7    8    9   10
                                                     11   12   13   14   15
 DE= -2.18D-05 DEPred=-1.37D-05 R= 1.59D+00
 TightC=F SS=  1.41D+00  RLast= 8.18D-03 DXNew= 2.2039D+00 2.4550D-02
 Trust test= 1.59D+00 RLast= 8.18D-03 DXMaxT set to 1.31D+00
 ITU=  1  1  1  1  1  1  1  1  1  1  1  0  0  1  0
     Eigenvalues ---    0.02237   0.02241   0.02246   0.02249   0.02252
     Eigenvalues ---    0.02262   0.02262   0.02262   0.13465   0.15709
     Eigenvalues ---    0.17826   0.21148   0.24389   0.25131   0.25351
     Eigenvalues ---    0.26076   0.29363   0.30610   0.32407   0.35716
     Eigenvalues ---    0.42926   0.43568   0.44782   0.48343   0.51112
     Eigenvalues ---    0.54568   1.42979
 En-DIIS/RFO-DIIS/Sim-DIIS IScMMF=       -3 using points:    15   14
 RFO step:  Lambda=-4.47038218D-05.
 DidBck=F Rises=F RFO-DIIS coefs:    2.35706   -1.35706
 Iteration  1 RMS(Cart)=  0.00143287 RMS(Int)=  0.00000075
 Iteration  2 RMS(Cart)=  0.00000110 RMS(Int)=  0.00000025
 Iteration  3 RMS(Cart)=  0.00000000 RMS(Int)=  0.00000025
 ClnCor:  largest displacement from symmetrization is 2.78D-10 for atom     9.
 Variable       Old X    -DE/DX   Delta X   Delta X   Delta X     New X
                                 (Linear)    (Quad)   (Total)
    R1        2.62293  -0.00016   0.00080   0.00001   0.00081   2.62374
    R2        2.63215   0.00010  -0.00079   0.00000  -0.00078   2.63137
    R3        3.34736  -0.00237  -0.00548   0.00007  -0.00542   3.34194
    R4        2.62369  -0.00007   0.00057   0.00010   0.00067   2.62436
    R5        2.04189   0.00003  -0.00028   0.00002  -0.00026   2.04164
    R6        2.63526  -0.00007  -0.00020  -0.00010  -0.00029   2.63496
    R7        3.33640  -0.00059   0.00116  -0.00057   0.00059   3.33698
    R8        2.60001   0.00060  -0.00153   0.00018  -0.00135   2.59866
    R9        3.36917   0.00456   0.00596   0.00291   0.00887   3.37805
   R10        2.60273  -0.00075   0.00210  -0.00066   0.00143   2.60416
   R11        3.38096   0.00181  -0.00292   0.00294   0.00002   3.38097
    A1        2.09249  -0.00085   0.00249  -0.00085   0.00164   2.09413
    A2        2.03753   0.00049  -0.00140   0.00032  -0.00108   2.03645
    A3        2.15316   0.00036  -0.00109   0.00053  -0.00056   2.15260
    A4        2.06286   0.00030  -0.00137   0.00021  -0.00117   2.06169
    A5        2.11074  -0.00025   0.00145  -0.00006   0.00139   2.11213
    A6        2.10959  -0.00005  -0.00008  -0.00015  -0.00023   2.10936
    A7        2.08608   0.00019  -0.00110  -0.00014  -0.00124   2.08484
    A8        2.03920   0.00028  -0.00097   0.00022  -0.00075   2.03845
    A9        2.15790  -0.00047   0.00207  -0.00008   0.00199   2.15990
   A10        2.16035  -0.00029   0.00257   0.00040   0.00296   2.16331
   A11        2.04415   0.00020  -0.00194  -0.00009  -0.00203   2.04212
   A12        2.07869   0.00008  -0.00063  -0.00030  -0.00093   2.07775
   A13        2.00990  -0.00042  -0.00079  -0.00092  -0.00171   2.00818
   A14        2.15470   0.00105  -0.00179   0.00131  -0.00048   2.15421
   A15        2.04885  -0.00086   0.00220  -0.00104   0.00116   2.05001
   A16        2.07964  -0.00019  -0.00041  -0.00027  -0.00068   2.07896
    D1       -0.00000   0.00000   0.00000   0.00000   0.00000   0.00000
    D2        3.14159  -0.00000   0.00000   0.00000   0.00000   3.14159
    D3        3.14159   0.00000   0.00000   0.00000   0.00000   3.14159
    D4        0.00000   0.00000   0.00000   0.00000  -0.00000   0.00000
    D5        0.00000   0.00000   0.00000   0.00000  -0.00000   0.00000
    D6        3.14159   0.00000   0.00000   0.00000   0.00000   3.14159
    D7        3.14159  -0.00000   0.00000  -0.00000   0.00000   3.14159
    D8       -0.00000   0.00000   0.00000   0.00000   0.00000   0.00000
    D9        0.00000  -0.00000   0.00000  -0.00000  -0.00000   0.00000
   D10        3.14159  -0.00000   0.00000  -0.00000   0.00000   3.14159
   D11        3.14159   0.00000   0.00000  -0.00000   0.00000   3.14159
   D12       -0.00000  -0.00000   0.00000   0.00000   0.00000   0.00000
   D13       -0.00000   0.00000   0.00000   0.00000   0.00000   0.00000
   D14        3.14159   0.00000   0.00000   0.00000   0.00000   3.14159
   D15        3.14159   0.00000   0.00000  -0.00000   0.00000   3.14159
   D16       -0.00000   0.00000   0.00000   0.00000   0.00000   0.00000
   D17        0.00000  -0.00000   0.00000   0.00000  -0.00000   0.00000
   D18        3.14159   0.00000   0.00000  -0.00000   0.00000   3.14159
   D19       -0.00000  -0.00000   0.00000  -0.00000   0.00000   0.00000
   D20        3.14159  -0.00000   0.00000  -0.00000   0.00000   3.14159
         Item               Value     Threshold  Converged?
 Maximum Force            0.004564     0.000450     NO 
 RMS     Force            0.000860     0.000300     NO 
 Maximum Displacement     0.004893     0.001800     NO 
 RMS     Displacement     0.001433     0.001200     NO 
 Predicted change in Energy=-2.235491D-05
 GradGradGradGradGradGradGradGradGradGradGradGradGradGradGradGradGradGrad

                          Input orientation:                          
 ---------------------------------------------------------------------
 Center     Atomic      Atomic             Coordinates (Angstroms)
 Number     Number       Type             X           Y           Z
 ---------------------------------------------------------------------
      1          6           0        1.184425    0.687193   -0.000000
      2          6           0        1.205699   -0.701066   -0.000000
      3          6           0       -0.008878   -1.374435    0.000000
      4          6           0       -1.197215   -0.644983    0.000000
      5          6           0       -1.254924    0.728957   -0.000000
      6          6           0       -0.032185    1.364543   -0.000000
      7         17           0        0.019323    3.152935   -0.000000
      8         17           0        2.752259    1.505371   -0.000000
      9          1           0        2.140035   -1.243518   -0.000000
     10         17           0        0.059205   -3.138977    0.000000
     11         17           0       -2.722169   -1.577710    0.000000
 ---------------------------------------------------------------------
                    Distance matrix (angstroms):
                    1          2          3          4          5
     1  C    0.000000
     2  C    1.388423   0.000000
     3  C    2.382076   1.388749   0.000000
     4  C    2.728902   2.403569   1.394362   0.000000
     5  C    2.439707   2.845985   2.444768   1.375151   0.000000
     6  C    1.392460   2.408132   2.739078   2.322820   1.378064
     7  Cl   2.727150   4.032470   4.527458   3.988001   2.738500
     8  Cl   1.768479   2.694478   3.989632   4.496929   4.081708
     9  H    2.154260   1.080387   2.152897   3.390499   3.926372
    10  Cl   3.988195   2.694041   1.765854   2.792597   4.085076
    11  Cl   4.515669   4.024506   2.720894   1.787585   2.733773
                    6          7          8          9         10
     6  C    0.000000
     7  Cl   1.789133   0.000000
     8  Cl   2.788003   3.191145   0.000000
     9  H    3.394189   4.881210   2.816240   0.000000
    10  Cl   4.504447   6.292038   5.368660   2.814714   0.000000
    11  Cl   3.986586   5.467612   6.282893   4.873675   3.189607
                   11
    11  Cl   0.000000
 Stoichiometry    C6HCl4(1-)
 Framework group  CS[SG(C6HCl4)]
 Deg. of freedom    19
 Full point group                 CS      NOp   2
 Largest Abelian subgroup         CS      NOp   2
 Largest concise Abelian subgroup C1      NOp   1
                         Standard orientation:                         
 ---------------------------------------------------------------------
 Center     Atomic      Atomic             Coordinates (Angstroms)
 Number     Number       Type             X           Y           Z
 ---------------------------------------------------------------------
      1          6           0        0.000000    1.350925    0.000000
      2          6           0       -1.195297    0.644539    0.000000
      3          6           0       -1.135798   -0.742935    0.000000
      4          6           0        0.106623   -1.375893   -0.000000
      5          6           0        1.308721   -0.708060   -0.000000
      6          6           0        1.212733    0.666658   -0.000000
      7         17           0        2.711361    1.643957   -0.000000
      8         17           0       -0.120342    3.115305    0.000000
      9          1           0       -2.145642    1.158428    0.000000
     10         17           0       -2.676496   -1.605773    0.000000
     11         17           0        0.106874   -3.163478   -0.000000
 ---------------------------------------------------------------------
 Rotational constants (GHZ):           1.1646522           0.4623529           0.3309641
 Standard basis: 6-311++G(d,p) (5D, 7F)
 There are   200 symmetry adapted cartesian basis functions of A'  symmetry.
 There are    69 symmetry adapted cartesian basis functions of A"  symmetry.
 There are   190 symmetry adapted basis functions of A'  symmetry.
 There are    69 symmetry adapted basis functions of A"  symmetry.
   259 basis functions,   437 primitive gaussians,   269 cartesian basis functions
    53 alpha electrons       53 beta electrons
       nuclear repulsion energy       804.8703631568 Hartrees.
 NAtoms=   11 NActive=   11 NUniq=   11 SFac= 1.00D+00 NAtFMM=   60 NAOKFM=F Big=F
 Integral buffers will be    131072 words long.
 Raffenetti 2 integral format.
 Two-electron integral symmetry is turned on.
 One-electron integrals computed using PRISM.
 NBasis=   259 RedAO= T EigKep=  1.29D-06  NBF=   190    69
 NBsUse=   258 1.00D-06 EigRej=  8.85D-07 NBFU=   189    69
 Initial guess from the checkpoint file:  "frequency_chks/Pentachlorobenzene_anion_product_Freq.chk"
 B after Tr=     0.000000    0.000000    0.000000
         Rot=    1.000000   -0.000000   -0.000000   -0.000045 Ang=  -0.01 deg.
 Initial guess orbital symmetries:
       Occupied  (A') (A') (A') (A') (A') (A') (A') (A') (A') (A')
                 (A') (A') (A') (A') (A') (A') (A") (A') (A") (A')
                 (A') (A') (A") (A") (A') (A') (A') (A') (A') (A')
                 (A') (A') (A') (A') (A') (A') (A') (A') (A") (A')
                 (A') (A") (A') (A") (A') (A") (A') (A") (A') (A')
                 (A") (A") (A')
       Virtual   (A') (A') (A') (A") (A') (A") (A') (A') (A") (A')
                 (A") (A') (A") (A') (A') (A") (A') (A') (A') (A')
                 (A") (A') (A') (A") (A') (A') (A") (A") (A') (A')
                 (A') (A") (A') (A") (A') (A') (A") (A') (A') (A')
                 (A') (A') (A') (A') (A') (A') (A') (A') (A') (A')
                 (A') (A') (A') (A") (A') (A') (A") (A') (A') (A')
                 (A") (A') (A") (A') (A') (A") (A') (A') (A") (A")
                 (A') (A") (A") (A') (A') (A') (A") (A') (A') (A')
                 (A') (A") (A') (A') (A") (A') (A') (A") (A') (A')
                 (A") (A") (A") (A') (A') (A") (A') (A') (A') (A')
                 (A") (A') (A') (A') (A') (A") (A') (A') (A") (A')
                 (A') (A') (A') (A') (A") (A') (A") (A') (A") (A")
                 (A') (A') (A') (A') (A') (A") (A') (A') (A') (A")
                 (A') (A") (A') (A") (A") (A') (A') (A") (A') (A')
                 (A') (A") (A") (A') (A") (A') (A") (A") (A') (A')
                 (A') (A') (A') (A') (A') (A') (A') (A') (A") (A')
                 (A') (A") (A") (A") (A") (A') (A") (A') (A') (A')
                 (A') (A') (A') (A') (A') (A') (A') (A') (A') (A')
                 (A') (A') (A') (A') (A') (A') (A') (A') (A') (A")
                 (A") (A") (A") (A') (A') (A') (A') (A') (A') (A')
                 (A') (A') (A') (A') (A')
 Keep R1 ints in memory in symmetry-blocked form, NReq=864233843.
 Requested convergence on RMS density matrix=1.00D-08 within 128 cycles.
 Requested convergence on MAX density matrix=1.00D-06.
 Requested convergence on             energy=1.00D-06.
 No special actions if energy rises.
 SCF Done:  E(RM062X) =  -2070.00697619     A.U. after   16 cycles
            NFock= 16  Conv=0.91D-08     -V/T= 2.0023
 Calling FoFJK, ICntrl=      2127 FMM=F ISym2X=1 I1Cent= 0 IOpClX= 0 NMat=1 NMatS=1 NMatT=0.
 ***** Axes restored to original set *****
 -------------------------------------------------------------------
 Center     Atomic                   Forces (Hartrees/Bohr)
 Number     Number              X              Y              Z
 -------------------------------------------------------------------
      1        6           0.003396924    0.001309023   -0.000000000
      2        6          -0.001847694    0.000298171    0.000000000
      3        6           0.001117369   -0.000211909   -0.000000000
      4        6           0.002305053    0.000291577   -0.000000000
      5        6           0.000866954    0.001666467   -0.000000000
      6        6          -0.002098611   -0.003888617    0.000000000
      7       17           0.000333333    0.001648067   -0.000000000
      8       17          -0.001070902   -0.000419142    0.000000000
      9        1           0.000185936    0.000148214   -0.000000000
     10       17          -0.000407804    0.000840021   -0.000000000
     11       17          -0.002780557   -0.001681872    0.000000000
 -------------------------------------------------------------------
 Cartesian Forces:  Max     0.003888617 RMS     0.001372234

 GradGradGradGradGradGradGradGradGradGradGradGradGradGradGradGradGradGrad
 Berny optimization.
 Using GEDIIS/GDIIS optimizer.
 FormGI is forming the generalized inverse of G from B-inverse, IUseBI=4.
 Internal  Forces:  Max     0.003248788 RMS     0.000727936
 Search for a local minimum.
 Step number  16 out of a maximum of   57
 All quantities printed in internal units (Hartrees-Bohrs-Radians)
 Mixed Optimization -- En-DIIS/RFO-DIIS
 Swapping is turned off.
 Update second derivatives using D2CorX and points    6    7    8    9   10
                                                     11   12   13   14   15
                                                     16
 DE= -3.24D-05 DEPred=-2.24D-05 R= 1.45D+00
 TightC=F SS=  1.41D+00  RLast= 1.21D-02 DXNew= 2.2039D+00 3.6312D-02
 Trust test= 1.45D+00 RLast= 1.21D-02 DXMaxT set to 1.31D+00
 ITU=  1  1  1  1  1  1  1  1  1  1  1  1  0  0  1  0
     Eigenvalues ---    0.02237   0.02241   0.02246   0.02249   0.02252
     Eigenvalues ---    0.02262   0.02262   0.02262   0.13325   0.15275
     Eigenvalues ---    0.17586   0.20239   0.24540   0.25166   0.25416
     Eigenvalues ---    0.26000   0.28744   0.30615   0.32548   0.35709
     Eigenvalues ---    0.43384   0.43755   0.44836   0.48360   0.50995
     Eigenvalues ---    0.54380   1.01042
 En-DIIS/RFO-DIIS/Sim-DIIS IScMMF=       -3 using points:    16   15   14
 RFO step:  Lambda=-4.19739229D-05.
 DidBck=F Rises=F RFO-DIIS coefs:    1.81706   -2.00000    1.18294
 Iteration  1 RMS(Cart)=  0.00145372 RMS(Int)=  0.00000061
 Iteration  2 RMS(Cart)=  0.00000068 RMS(Int)=  0.00000027
 ClnCor:  largest displacement from symmetrization is 4.80D-13 for atom     8.
 Variable       Old X    -DE/DX   Delta X   Delta X   Delta X     New X
                                 (Linear)    (Quad)   (Total)
    R1        2.62374  -0.00033  -0.00004   0.00045   0.00041   2.62415
    R2        2.63137   0.00037   0.00005   0.00009   0.00014   2.63150
    R3        3.34194  -0.00114   0.00035  -0.00539  -0.00503   3.33691
    R4        2.62436  -0.00031   0.00005   0.00030   0.00035   2.62471
    R5        2.04164   0.00009   0.00003  -0.00007  -0.00003   2.04160
    R6        2.63496  -0.00016  -0.00007  -0.00042  -0.00049   2.63448
    R7        3.33698  -0.00086  -0.00053  -0.00029  -0.00082   3.33616
    R8        2.59866   0.00061   0.00023  -0.00079  -0.00056   2.59810
    R9        3.37805   0.00325   0.00205   0.00848   0.01053   3.38858
   R10        2.60416  -0.00107  -0.00066   0.00004  -0.00062   2.60355
   R11        3.38097   0.00166   0.00256   0.00222   0.00478   3.38575
    A1        2.09413  -0.00130  -0.00083  -0.00055  -0.00139   2.09274
    A2        2.03645   0.00084   0.00034   0.00018   0.00052   2.03697
    A3        2.15260   0.00046   0.00049   0.00038   0.00087   2.15347
    A4        2.06169   0.00059   0.00024  -0.00002   0.00022   2.06192
    A5        2.11213  -0.00052  -0.00013   0.00035   0.00022   2.11236
    A6        2.10936  -0.00008  -0.00012  -0.00033  -0.00045   2.10891
    A7        2.08484   0.00033  -0.00005  -0.00078  -0.00083   2.08401
    A8        2.03845   0.00048   0.00023  -0.00003   0.00020   2.03865
    A9        2.15990  -0.00080  -0.00018   0.00081   0.00063   2.16053
   A10        2.16331  -0.00060   0.00018   0.00185   0.00204   2.16535
   A11        2.04212   0.00034   0.00003  -0.00124  -0.00121   2.04091
   A12        2.07775   0.00026  -0.00021  -0.00061  -0.00083   2.07693
   A13        2.00818  -0.00026  -0.00071  -0.00165  -0.00236   2.00583
   A14        2.15421   0.00124   0.00117   0.00114   0.00231   2.15653
   A15        2.05001  -0.00112  -0.00097  -0.00045  -0.00142   2.04859
   A16        2.07896  -0.00012  -0.00020  -0.00070  -0.00089   2.07806
    D1        0.00000   0.00000   0.00000  -0.00000   0.00000   0.00000
    D2        3.14159   0.00000   0.00000   0.00000   0.00000   3.14159
    D3        3.14159  -0.00000   0.00000  -0.00000   0.00000   3.14159
    D4       -0.00000   0.00000   0.00000  -0.00000   0.00000   0.00000
    D5       -0.00000   0.00000   0.00000   0.00000   0.00000   0.00000
    D6        3.14159   0.00000   0.00000  -0.00000   0.00000   3.14159
    D7        3.14159   0.00000   0.00000   0.00000   0.00000   3.14159
    D8        0.00000   0.00000   0.00000  -0.00000  -0.00000   0.00000
    D9        0.00000  -0.00000   0.00000   0.00000  -0.00000   0.00000
   D10        3.14159   0.00000   0.00000   0.00000   0.00000   3.14159
   D11        3.14159  -0.00000   0.00000  -0.00000   0.00000   3.14159
   D12       -0.00000   0.00000   0.00000   0.00000   0.00000   0.00000
   D13       -0.00000   0.00000   0.00000  -0.00000   0.00000   0.00000
   D14        3.14159   0.00000   0.00000   0.00000   0.00000   3.14159
   D15        3.14159  -0.00000   0.00000  -0.00000   0.00000   3.14159
   D16        0.00000   0.00000   0.00000  -0.00000  -0.00000   0.00000
   D17        0.00000  -0.00000   0.00000  -0.00000  -0.00000   0.00000
   D18        3.14159  -0.00000   0.00000  -0.00000   0.00000   3.14159
   D19       -0.00000  -0.00000   0.00000   0.00000   0.00000   0.00000
   D20        3.14159  -0.00000   0.00000   0.00000   0.00000   3.14159
         Item               Value     Threshold  Converged?
 Maximum Force            0.003249     0.000450     NO 
 RMS     Force            0.000728     0.000300     NO 
 Maximum Displacement     0.005872     0.001800     NO 
 RMS     Displacement     0.001454     0.001200     NO 
 Predicted change in Energy=-1.799773D-05
 GradGradGradGradGradGradGradGradGradGradGradGradGradGradGradGradGradGrad

                          Input orientation:                          
 ---------------------------------------------------------------------
 Center     Atomic      Atomic             Coordinates (Angstroms)
 Number     Number       Type             X           Y           Z
 ---------------------------------------------------------------------
      1          6           0        1.185451    0.687547   -0.000000
      2          6           0        1.206362   -0.700937   -0.000000
      3          6           0       -0.008405   -1.374348    0.000000
      4          6           0       -1.195887   -0.643996    0.000000
      5          6           0       -1.255187    0.729581   -0.000000
      6          6           0       -0.031984    1.363564   -0.000000
      7         17           0        0.020128    3.154470   -0.000000
      8         17           0        2.750715    1.504891   -0.000000
      9          1           0        2.140419   -1.243836   -0.000000
     10         17           0        0.059238   -3.138473    0.000000
     11         17           0       -2.725276   -1.580153    0.000000
 ---------------------------------------------------------------------
                    Distance matrix (angstroms):
                    1          2          3          4          5
     1  C    0.000000
     2  C    1.388642   0.000000
     3  C    2.382583   1.388935   0.000000
     4  C    2.728328   2.402924   1.394105   0.000000
     5  C    2.441000   2.847035   2.445605   1.374857   0.000000
     6  C    1.392532   2.407419   2.738013   2.320553   1.377737
     7  Cl   2.728311   4.033772   4.528907   3.988362   2.739801
     8  Cl   1.765815   2.692712   3.987826   4.493704   4.080239
     9  H    2.154578   1.080371   2.152784   3.389800   3.927406
    10  Cl   3.988331   2.693970   1.765421   2.792446   4.085285
    11  Cl   4.520647   4.028747   2.724655   1.793160   2.737889
                    6          7          8          9         10
     6  C    0.000000
     7  Cl   1.791664   0.000000
     8  Cl   2.786285   3.190175   0.000000
     9  H    3.393798   4.882697   2.815663   0.000000
    10  Cl   4.502961   6.293064   5.367017   2.814420   0.000000
    11  Cl   3.989899   5.473015   6.285218   4.877304   3.190906
                   11
    11  Cl   0.000000
 Stoichiometry    C6HCl4(1-)
 Framework group  CS[SG(C6HCl4)]
 Deg. of freedom    19
 Full point group                 CS      NOp   2
 Largest Abelian subgroup         CS      NOp   2
 Largest concise Abelian subgroup C1      NOp   1
                         Standard orientation:                         
 ---------------------------------------------------------------------
 Center     Atomic      Atomic             Coordinates (Angstroms)
 Number     Number       Type             X           Y           Z
 ---------------------------------------------------------------------
      1          6           0        0.000000    1.352382    0.000000
      2          6           0       -1.195501    0.645910   -0.000000
      3          6           0       -1.136334   -0.741765   -0.000000
      4          6           0        0.106228   -1.373878   -0.000000
      5          6           0        1.309037   -0.707934    0.000000
      6          6           0        1.211830    0.666370    0.000000
      7         17           0        2.712567    1.645068    0.000000
      8         17           0       -0.119210    3.114168    0.000000
      9          1           0       -2.145936    1.159598   -0.000000
     10         17           0       -2.676693   -1.604322   -0.000000
     11         17           0        0.105358   -3.167037   -0.000000
 ---------------------------------------------------------------------
 Rotational constants (GHZ):           1.1645036           0.4620671           0.3308057
 Standard basis: 6-311++G(d,p) (5D, 7F)
 There are   200 symmetry adapted cartesian basis functions of A'  symmetry.
 There are    69 symmetry adapted cartesian basis functions of A"  symmetry.
 There are   190 symmetry adapted basis functions of A'  symmetry.
 There are    69 symmetry adapted basis functions of A"  symmetry.
   259 basis functions,   437 primitive gaussians,   269 cartesian basis functions
    53 alpha electrons       53 beta electrons
       nuclear repulsion energy       804.6856487684 Hartrees.
 NAtoms=   11 NActive=   11 NUniq=   11 SFac= 1.00D+00 NAtFMM=   60 NAOKFM=F Big=F
 Integral buffers will be    131072 words long.
 Raffenetti 2 integral format.
 Two-electron integral symmetry is turned on.
 One-electron integrals computed using PRISM.
 NBasis=   259 RedAO= T EigKep=  1.28D-06  NBF=   190    69
 NBsUse=   258 1.00D-06 EigRej=  8.88D-07 NBFU=   189    69
 Initial guess from the checkpoint file:  "frequency_chks/Pentachlorobenzene_anion_product_Freq.chk"
 B after Tr=    -0.000000   -0.000000   -0.000000
         Rot=    1.000000    0.000000    0.000000    0.000147 Ang=   0.02 deg.
 Initial guess orbital symmetries:
       Occupied  (A') (A') (A') (A') (A') (A') (A') (A') (A') (A')
                 (A') (A') (A') (A') (A') (A') (A") (A') (A") (A')
                 (A') (A') (A") (A') (A") (A') (A') (A') (A') (A')
                 (A') (A') (A') (A') (A') (A') (A') (A') (A") (A')
                 (A') (A") (A') (A") (A') (A") (A') (A") (A') (A')
                 (A") (A") (A')
       Virtual   (A') (A') (A') (A") (A') (A") (A') (A') (A") (A')
                 (A") (A') (A") (A') (A') (A") (A') (A') (A') (A')
                 (A") (A') (A') (A") (A') (A') (A") (A") (A') (A')
                 (A') (A") (A') (A") (A') (A') (A") (A') (A') (A')
                 (A') (A') (A') (A') (A') (A') (A') (A') (A') (A')
                 (A') (A') (A') (A") (A') (A') (A") (A') (A') (A')
                 (A") (A') (A") (A') (A') (A") (A') (A') (A") (A")
                 (A') (A") (A") (A') (A') (A') (A") (A') (A') (A')
                 (A') (A") (A') (A') (A") (A') (A') (A") (A') (A')
                 (A") (A") (A") (A') (A') (A") (A') (A') (A') (A')
                 (A") (A') (A') (A') (A') (A") (A') (A') (A") (A')
                 (A') (A') (A') (A') (A") (A') (A") (A') (A") (A")
                 (A') (A') (A') (A') (A') (A") (A') (A') (A') (A")
                 (A') (A") (A') (A") (A") (A') (A') (A") (A') (A')
                 (A') (A") (A") (A') (A") (A') (A") (A") (A') (A')
                 (A') (A') (A') (A') (A') (A') (A') (A') (A") (A')
                 (A') (A") (A") (A") (A") (A') (A") (A') (A') (A')
                 (A') (A') (A') (A') (A') (A') (A') (A') (A') (A')
                 (A') (A') (A') (A') (A') (A') (A') (A') (A') (A")
                 (A") (A") (A") (A') (A') (A') (A') (A') (A') (A')
                 (A') (A') (A') (A') (A')
 Keep R1 ints in memory in symmetry-blocked form, NReq=864233843.
 Requested convergence on RMS density matrix=1.00D-08 within 128 cycles.
 Requested convergence on MAX density matrix=1.00D-06.
 Requested convergence on             energy=1.00D-06.
 No special actions if energy rises.
 SCF Done:  E(RM062X) =  -2070.00701682     A.U. after   16 cycles
            NFock= 16  Conv=0.95D-08     -V/T= 2.0023
 Calling FoFJK, ICntrl=      2127 FMM=F ISym2X=1 I1Cent= 0 IOpClX= 0 NMat=1 NMatS=1 NMatT=0.
 ***** Axes restored to original set *****
 -------------------------------------------------------------------
 Center     Atomic                   Forces (Hartrees/Bohr)
 Number     Number              X              Y              Z
 -------------------------------------------------------------------
      1        6           0.002629575    0.000689199   -0.000000000
      2        6          -0.002023618    0.000310927    0.000000000
      3        6           0.001185274   -0.000132048   -0.000000000
      4        6           0.000704187   -0.000365569   -0.000000000
      5        6           0.001089348    0.001173862   -0.000000000
      6        6          -0.002058929   -0.002807019    0.000000000
      7       17           0.000318545    0.000977652   -0.000000000
      8       17          -0.000326883    0.000012081    0.000000000
      9        1           0.000222823    0.000162201   -0.000000000
     10       17          -0.000424520    0.000801189   -0.000000000
     11       17          -0.001315803   -0.000822475    0.000000000
 -------------------------------------------------------------------
 Cartesian Forces:  Max     0.002807019 RMS     0.000996760

 GradGradGradGradGradGradGradGradGradGradGradGradGradGradGradGradGradGrad
 Berny optimization.
 Using GEDIIS/GDIIS optimizer.
 FormGI is forming the generalized inverse of G from B-inverse, IUseBI=4.
 Internal  Forces:  Max     0.001550883 RMS     0.000521687
 Search for a local minimum.
 Step number  17 out of a maximum of   57
 All quantities printed in internal units (Hartrees-Bohrs-Radians)
 Mixed Optimization -- En-DIIS/RFO-DIIS
 Swapping is turned off.
 Update second derivatives using D2CorX and points    6    7    8    9   10
                                                     11   12   13   14   15
                                                     16   17
 DE= -4.06D-05 DEPred=-1.80D-05 R= 2.26D+00
 TightC=F SS=  1.41D+00  RLast= 1.36D-02 DXNew= 2.2039D+00 4.0859D-02
 Trust test= 2.26D+00 RLast= 1.36D-02 DXMaxT set to 1.31D+00
 ITU=  1  1  1  1  1  1  1  1  1  1  1  1  1  0  0  1  0
     Eigenvalues ---    0.02237   0.02241   0.02246   0.02249   0.02252
     Eigenvalues ---    0.02262   0.02262   0.02262   0.13571   0.13780
     Eigenvalues ---    0.16889   0.19526   0.24843   0.25194   0.25533
     Eigenvalues ---    0.25945   0.27703   0.30411   0.32615   0.35708
     Eigenvalues ---    0.43414   0.44458   0.45505   0.47670   0.48416
     Eigenvalues ---    0.52686   0.65871
 En-DIIS/RFO-DIIS/Sim-DIIS IScMMF=       -3 using points:    17   16   15   14
 RFO step:  Lambda=-4.35127100D-05.
 DIIS inversion failure, remove point   4.
 RFO-DIIS uses    3 points instead of    4
 DidBck=F Rises=F RFO-DIIS coefs:    2.13263   -2.00000    0.86737    0.00000
 Iteration  1 RMS(Cart)=  0.00202747 RMS(Int)=  0.00000289
 Iteration  2 RMS(Cart)=  0.00000419 RMS(Int)=  0.00000145
 Iteration  3 RMS(Cart)=  0.00000000 RMS(Int)=  0.00000145
 ClnCor:  largest displacement from symmetrization is 7.59D-14 for atom    10.
 Variable       Old X    -DE/DX   Delta X   Delta X   Delta X     New X
                                 (Linear)    (Quad)   (Total)
    R1        2.62415  -0.00035  -0.00023   0.00001  -0.00022   2.62393
    R2        2.63150   0.00039   0.00083   0.00064   0.00148   2.63298
    R3        3.33691  -0.00028  -0.00100  -0.00382  -0.00483   3.33208
    R4        2.62471  -0.00038  -0.00018  -0.00023  -0.00042   2.62429
    R5        2.04160   0.00011   0.00019   0.00019   0.00038   2.04198
    R6        2.63448  -0.00021  -0.00030  -0.00034  -0.00064   2.63384
    R7        3.33616  -0.00082  -0.00144  -0.00113  -0.00257   3.33360
    R8        2.59810   0.00036   0.00054  -0.00041   0.00013   2.59823
    R9        3.38858   0.00155   0.00424   0.00513   0.00936   3.39794
   R10        2.60355  -0.00101  -0.00194  -0.00116  -0.00310   2.60045
   R11        3.38575   0.00099   0.00540   0.00222   0.00762   3.39338
    A1        2.09274  -0.00127  -0.00299  -0.00244  -0.00543   2.08731
    A2        2.03697   0.00089   0.00152   0.00164   0.00316   2.04013
    A3        2.15347   0.00038   0.00147   0.00080   0.00227   2.15574
    A4        2.06192   0.00066   0.00127   0.00138   0.00265   2.06457
    A5        2.11236  -0.00058  -0.00096  -0.00111  -0.00207   2.11029
    A6        2.10891  -0.00008  -0.00031  -0.00027  -0.00058   2.10833
    A7        2.08401   0.00030   0.00014  -0.00026  -0.00013   2.08387
    A8        2.03865   0.00052   0.00088   0.00086   0.00174   2.04039
    A9        2.16053  -0.00082  -0.00101  -0.00059  -0.00160   2.15892
   A10        2.16535  -0.00068  -0.00026  -0.00012  -0.00038   2.16496
   A11        2.04091   0.00033   0.00039  -0.00000   0.00039   2.04130
   A12        2.07693   0.00035  -0.00013   0.00012  -0.00000   2.07692
   A13        2.00583  -0.00001  -0.00118  -0.00035  -0.00153   2.00430
   A14        2.15653   0.00100   0.00304   0.00179   0.00483   2.16136
   A15        2.04859  -0.00100  -0.00262  -0.00180  -0.00441   2.04418
   A16        2.07806   0.00001  -0.00042   0.00001  -0.00042   2.07765
    D1       -0.00000  -0.00000   0.00000  -0.00000   0.00000   0.00000
    D2        3.14159   0.00000  -0.00000  -0.00000   0.00000   3.14159
    D3        3.14159  -0.00000  -0.00000   0.00000   0.00000   3.14159
    D4       -0.00000  -0.00000   0.00000  -0.00000   0.00000   0.00000
    D5       -0.00000  -0.00000   0.00000  -0.00000   0.00000   0.00000
    D6        3.14159  -0.00000  -0.00000  -0.00000   0.00000   3.14159
    D7        3.14159   0.00000  -0.00000  -0.00000   0.00000   3.14159
    D8        0.00000  -0.00000   0.00000  -0.00000  -0.00000   0.00000
    D9        0.00000   0.00000   0.00000   0.00000  -0.00000   0.00000
   D10        3.14159   0.00000  -0.00000  -0.00000   0.00000   3.14159
   D11        3.14159   0.00000  -0.00000   0.00000   0.00000   3.14159
   D12       -0.00000   0.00000   0.00000   0.00000   0.00000   0.00000
   D13       -0.00000  -0.00000   0.00000  -0.00000   0.00000   0.00000
   D14        3.14159   0.00000  -0.00000  -0.00000   0.00000   3.14159
   D15        3.14159  -0.00000  -0.00000   0.00000   0.00000   3.14159
   D16        0.00000  -0.00000   0.00000  -0.00000   0.00000   0.00000
   D17        0.00000  -0.00000   0.00000  -0.00000   0.00000   0.00000
   D18        3.14159  -0.00000  -0.00000   0.00000   0.00000   3.14159
   D19        0.00000   0.00000   0.00000   0.00000   0.00000   0.00000
   D20        3.14159   0.00000  -0.00000   0.00000   0.00000   3.14159
         Item               Value     Threshold  Converged?
 Maximum Force            0.001551     0.000450     NO 
 RMS     Force            0.000522     0.000300     NO 
 Maximum Displacement     0.007030     0.001800     NO 
 RMS     Displacement     0.002028     0.001200     NO 
 Predicted change in Energy=-1.790088D-05
 GradGradGradGradGradGradGradGradGradGradGradGradGradGradGradGradGradGrad

                          Input orientation:                          
 ---------------------------------------------------------------------
 Center     Atomic      Atomic             Coordinates (Angstroms)
 Number     Number       Type             X           Y           Z
 ---------------------------------------------------------------------
      1          6           0        1.188227    0.688363   -0.000000
      2          6           0        1.206266   -0.700045   -0.000000
      3          6           0       -0.007917   -1.374055    0.000000
      4          6           0       -1.195440   -0.644414    0.000000
      5          6           0       -1.254834    0.729225   -0.000000
      6          6           0       -0.032158    1.360660   -0.000000
      7         17           0        0.021956    3.155542   -0.000000
      8         17           0        2.750335    1.506230   -0.000000
      9          1           0        2.140497   -1.243043   -0.000000
     10         17           0        0.057640   -3.136899    0.000000
     11         17           0       -2.728996   -1.583254    0.000000
 ---------------------------------------------------------------------
                    Distance matrix (angstroms):
                    1          2          3          4          5
     1  C    0.000000
     2  C    1.388525   0.000000
     3  C    2.384182   1.388715   0.000000
     4  C    2.730963   2.402350   1.393767   0.000000
     5  C    2.443402   2.846019   2.445115   1.374923   0.000000
     6  C    1.393314   2.404205   2.734822   2.318091   1.376098
     7  Cl   2.728949   4.033378   4.529695   3.990203   2.741752
     8  Cl   1.763261   2.692916   3.987981   4.493819   4.079843
     9  H    2.153403   1.080572   2.152405   3.389223   3.926591
    10  Cl   3.988842   2.693994   1.764063   2.789747   4.082831
    11  Cl   4.528231   4.033156   2.729109   1.798114   2.742392
                    6          7          8          9         10
     6  C    0.000000
     7  Cl   1.795697   0.000000
     8  Cl   2.786299   3.188148   0.000000
     9  H    3.391121   4.882188   2.816096   0.000000
    10  Cl   4.498456   6.292543   5.367425   2.815136   0.000000
    11  Cl   3.992438   5.479409   6.290308   4.881363   3.190479
                   11
    11  Cl   0.000000
 Stoichiometry    C6HCl4(1-)
 Framework group  CS[SG(C6HCl4)]
 Deg. of freedom    19
 Full point group                 CS      NOp   2
 Largest Abelian subgroup         CS      NOp   2
 Largest concise Abelian subgroup C1      NOp   1
                         Standard orientation:                         
 ---------------------------------------------------------------------
 Center     Atomic      Atomic             Coordinates (Angstroms)
 Number     Number       Type             X           Y           Z
 ---------------------------------------------------------------------
      1          6           0       -0.000000    1.355496    0.000000
      2          6           0       -1.194467    0.647506   -0.000000
      3          6           0       -1.137151   -0.740026   -0.000000
      4          6           0        0.104352   -1.373473   -0.000000
      5          6           0        1.307761   -0.708475    0.000000
      6          6           0        1.209680    0.664123    0.000000
      7         17           0        2.713498    1.645481    0.000000
      8         17           0       -0.115804    3.114950    0.000000
      9          1           0       -2.144692    1.162002   -0.000000
     10         17           0       -2.675974   -1.602547   -0.000000
     11         17           0        0.102024   -3.171585   -0.000000
 ---------------------------------------------------------------------
 Rotational constants (GHZ):           1.1653607           0.4615284           0.3305985
 Standard basis: 6-311++G(d,p) (5D, 7F)
 There are   200 symmetry adapted cartesian basis functions of A'  symmetry.
 There are    69 symmetry adapted cartesian basis functions of A"  symmetry.
 There are   190 symmetry adapted basis functions of A'  symmetry.
 There are    69 symmetry adapted basis functions of A"  symmetry.
   259 basis functions,   437 primitive gaussians,   269 cartesian basis functions
    53 alpha electrons       53 beta electrons
       nuclear repulsion energy       804.5164624389 Hartrees.
 NAtoms=   11 NActive=   11 NUniq=   11 SFac= 1.00D+00 NAtFMM=   60 NAOKFM=F Big=F
 Integral buffers will be    131072 words long.
 Raffenetti 2 integral format.
 Two-electron integral symmetry is turned on.
 One-electron integrals computed using PRISM.
 NBasis=   259 RedAO= T EigKep=  1.29D-06  NBF=   190    69
 NBsUse=   258 1.00D-06 EigRej=  8.91D-07 NBFU=   189    69
 Initial guess from the checkpoint file:  "frequency_chks/Pentachlorobenzene_anion_product_Freq.chk"
 B after Tr=    -0.000000   -0.000000    0.000000
         Rot=    1.000000    0.000000   -0.000000    0.000340 Ang=   0.04 deg.
 Initial guess orbital symmetries:
       Occupied  (A') (A') (A') (A') (A') (A') (A') (A') (A') (A')
                 (A') (A') (A') (A') (A') (A') (A") (A') (A") (A')
                 (A') (A') (A") (A') (A") (A') (A') (A') (A') (A')
                 (A') (A') (A') (A') (A') (A') (A') (A') (A") (A')
                 (A') (A") (A') (A") (A') (A") (A') (A") (A') (A')
                 (A") (A") (A')
       Virtual   (A') (A') (A') (A") (A') (A") (A') (A') (A") (A')
                 (A") (A') (A") (A') (A') (A") (A') (A') (A') (A')
                 (A") (A') (A') (A") (A') (A') (A") (A") (A') (A')
                 (A') (A") (A') (A") (A') (A') (A") (A') (A') (A')
                 (A') (A') (A') (A') (A') (A') (A') (A') (A') (A')
                 (A') (A') (A') (A") (A') (A') (A") (A') (A') (A')
                 (A") (A') (A") (A') (A') (A") (A') (A') (A") (A")
                 (A') (A") (A") (A') (A') (A') (A") (A') (A') (A')
                 (A') (A") (A') (A') (A") (A') (A') (A") (A') (A")
                 (A') (A") (A") (A') (A') (A") (A') (A') (A') (A')
                 (A") (A') (A') (A') (A') (A") (A') (A') (A") (A')
                 (A') (A') (A') (A') (A") (A') (A") (A') (A") (A")
                 (A') (A') (A') (A') (A') (A") (A') (A') (A') (A")
                 (A') (A") (A') (A") (A") (A') (A') (A") (A') (A')
                 (A') (A") (A") (A') (A") (A') (A") (A") (A') (A')
                 (A') (A') (A') (A') (A') (A') (A') (A') (A") (A')
                 (A') (A") (A") (A") (A") (A') (A") (A') (A') (A')
                 (A') (A') (A') (A') (A') (A') (A') (A') (A') (A')
                 (A') (A') (A') (A') (A') (A') (A') (A') (A') (A")
                 (A") (A") (A") (A') (A') (A') (A') (A') (A') (A')
                 (A') (A') (A') (A') (A')
 Keep R1 ints in memory in symmetry-blocked form, NReq=864233843.
 Requested convergence on RMS density matrix=1.00D-08 within 128 cycles.
 Requested convergence on MAX density matrix=1.00D-06.
 Requested convergence on             energy=1.00D-06.
 No special actions if energy rises.
 SCF Done:  E(RM062X) =  -2070.00705049     A.U. after   19 cycles
            NFock= 19  Conv=0.37D-08     -V/T= 2.0023
 Calling FoFJK, ICntrl=      2127 FMM=F ISym2X=1 I1Cent= 0 IOpClX= 0 NMat=1 NMatS=1 NMatT=0.
 ***** Axes restored to original set *****
 -------------------------------------------------------------------
 Center     Atomic                   Forces (Hartrees/Bohr)
 Number     Number              X              Y              Z
 -------------------------------------------------------------------
      1        6           0.000782515    0.000096759    0.000000000
      2        6          -0.000912668    0.000145407   -0.000000000
      3        6           0.000507600   -0.000078983    0.000000000
      4        6          -0.000432261   -0.000355583    0.000000000
      5        6           0.000620013    0.000204874    0.000000000
      6        6          -0.000845814   -0.000795086    0.000000000
      7       17           0.000121643    0.000208405   -0.000000000
      8       17           0.000123984    0.000151933   -0.000000000
      9        1           0.000111619    0.000071486   -0.000000000
     10       17          -0.000185678    0.000336348   -0.000000000
     11       17           0.000109046    0.000014440    0.000000000
 -------------------------------------------------------------------
 Cartesian Forces:  Max     0.000912668 RMS     0.000352519

 GradGradGradGradGradGradGradGradGradGradGradGradGradGradGradGradGradGrad
 Berny optimization.
 Using GEDIIS/GDIIS optimizer.
 FormGI is forming the generalized inverse of G from B-inverse, IUseBI=4.
 Internal  Forces:  Max     0.000516718 RMS     0.000186973
 Search for a local minimum.
 Step number  18 out of a maximum of   57
 All quantities printed in internal units (Hartrees-Bohrs-Radians)
 Mixed Optimization -- En-DIIS/RFO-DIIS
 Swapping is turned off.
 Update second derivatives using D2CorX and points    6    7    8    9   10
                                                     11   12   13   14   15
                                                     16   17   18
 DE= -3.37D-05 DEPred=-1.79D-05 R= 1.88D+00
 TightC=F SS=  1.41D+00  RLast= 1.72D-02 DXNew= 2.2039D+00 5.1584D-02
 Trust test= 1.88D+00 RLast= 1.72D-02 DXMaxT set to 1.31D+00
 ITU=  1  1  1  1  1  1  1  1  1  1  1  1  1  1  0  0  1  0
     Eigenvalues ---    0.02237   0.02241   0.02246   0.02249   0.02252
     Eigenvalues ---    0.02262   0.02262   0.02262   0.12095   0.14235
     Eigenvalues ---    0.16424   0.19391   0.24760   0.25138   0.25428
     Eigenvalues ---    0.26011   0.27014   0.30267   0.32594   0.35630
     Eigenvalues ---    0.36146   0.43357   0.44539   0.46692   0.48410
     Eigenvalues ---    0.51730   0.57423
 En-DIIS/RFO-DIIS/Sim-DIIS IScMMF=       -3 using points:    18   17   16   15   14
 RFO step:  Lambda=-6.60859051D-06.
 DIIS inversion failure, remove point   5.
 DIIS inversion failure, remove point   4.
 RFO-DIIS uses    3 points instead of    5
 DidBck=F Rises=F RFO-DIIS coefs:    1.75690   -1.49637    0.73946    0.00000    0.00000
 Iteration  1 RMS(Cart)=  0.00098354 RMS(Int)=  0.00000086
 Iteration  2 RMS(Cart)=  0.00000114 RMS(Int)=  0.00000047
 Iteration  3 RMS(Cart)=  0.00000000 RMS(Int)=  0.00000047
 ClnCor:  largest displacement from symmetrization is 1.10D-14 for atom    10.
 Variable       Old X    -DE/DX   Delta X   Delta X   Delta X     New X
                                 (Linear)    (Quad)   (Total)
    R1        2.62393  -0.00014  -0.00047   0.00008  -0.00039   2.62354
    R2        2.63298   0.00013   0.00102  -0.00016   0.00086   2.63384
    R3        3.33208   0.00018   0.00007  -0.00033  -0.00026   3.33182
    R4        2.62429  -0.00018  -0.00058   0.00010  -0.00048   2.62381
    R5        2.04198   0.00006   0.00031   0.00001   0.00032   2.04230
    R6        2.63384  -0.00012  -0.00012  -0.00006  -0.00018   2.63366
    R7        3.33360  -0.00034  -0.00134  -0.00002  -0.00136   3.33224
    R8        2.59823  -0.00002   0.00051  -0.00020   0.00031   2.59853
    R9        3.39794  -0.00010  -0.00070  -0.00037  -0.00108   3.39687
   R10        2.60045  -0.00042  -0.00189  -0.00009  -0.00198   2.59847
   R11        3.39338   0.00021   0.00223   0.00058   0.00282   3.39619
    A1        2.08731  -0.00052  -0.00308   0.00005  -0.00303   2.08429
    A2        2.04013   0.00037   0.00201  -0.00017   0.00184   2.04196
    A3        2.15574   0.00014   0.00108   0.00012   0.00119   2.15693
    A4        2.06457   0.00030   0.00184   0.00002   0.00186   2.06642
    A5        2.11029  -0.00027  -0.00173   0.00007  -0.00166   2.10863
    A6        2.10833  -0.00004  -0.00011  -0.00009  -0.00020   2.10813
    A7        2.08387   0.00009   0.00052  -0.00011   0.00040   2.08428
    A8        2.04039   0.00025   0.00117   0.00005   0.00121   2.04160
    A9        2.15892  -0.00035  -0.00168   0.00007  -0.00161   2.15731
   A10        2.16496  -0.00031  -0.00180  -0.00002  -0.00182   2.16315
   A11        2.04130   0.00010   0.00119  -0.00021   0.00098   2.04228
   A12        2.07692   0.00022   0.00061   0.00023   0.00084   2.07776
   A13        2.00430   0.00015   0.00058   0.00023   0.00081   2.00510
   A14        2.16136   0.00029   0.00194  -0.00017   0.00178   2.16313
   A15        2.04418  -0.00035  -0.00229   0.00016  -0.00213   2.04205
   A16        2.07765   0.00007   0.00034   0.00001   0.00036   2.07800
    D1        0.00000  -0.00000   0.00000   0.00000   0.00000   0.00000
    D2        3.14159  -0.00000   0.00000   0.00000   0.00000   3.14159
    D3        3.14159   0.00000   0.00000   0.00000   0.00000   3.14159
    D4       -0.00000   0.00000   0.00000   0.00000   0.00000   0.00000
    D5       -0.00000   0.00000   0.00000   0.00000   0.00000   0.00000
    D6        3.14159   0.00000   0.00000   0.00000   0.00000   3.14159
    D7        3.14159  -0.00000   0.00000   0.00000   0.00000   3.14159
    D8        0.00000   0.00000   0.00000   0.00000   0.00000   0.00000
    D9        0.00000  -0.00000   0.00000  -0.00000  -0.00000   0.00000
   D10        3.14159   0.00000   0.00000  -0.00000   0.00000   3.14159
   D11        3.14159  -0.00000   0.00000  -0.00000   0.00000   3.14159
   D12        0.00000  -0.00000   0.00000  -0.00000   0.00000   0.00000
   D13       -0.00000   0.00000   0.00000   0.00000   0.00000   0.00000
   D14        3.14159   0.00000   0.00000   0.00000   0.00000   3.14159
   D15        3.14159   0.00000   0.00000   0.00000   0.00000   3.14159
   D16        0.00000  -0.00000   0.00000   0.00000  -0.00000   0.00000
   D17        0.00000  -0.00000   0.00000   0.00000   0.00000   0.00000
   D18        3.14159  -0.00000   0.00000   0.00000   0.00000   3.14159
   D19        0.00000  -0.00000   0.00000  -0.00000  -0.00000   0.00000
   D20        3.14159  -0.00000   0.00000  -0.00000   0.00000   3.14159
         Item               Value     Threshold  Converged?
 Maximum Force            0.000517     0.000450     NO 
 RMS     Force            0.000187     0.000300     YES
 Maximum Displacement     0.002668     0.001800     NO 
 RMS     Displacement     0.000984     0.001200     YES
 Predicted change in Energy=-2.527973D-06
 GradGradGradGradGradGradGradGradGradGradGradGradGradGradGradGradGradGrad

                          Input orientation:                          
 ---------------------------------------------------------------------
 Center     Atomic      Atomic             Coordinates (Angstroms)
 Number     Number       Type             X           Y           Z
 ---------------------------------------------------------------------
      1          6           0        1.189510    0.688774   -0.000000
      2          6           0        1.205664   -0.699451    0.000000
      3          6           0       -0.007960   -1.373949    0.000000
      4          6           0       -1.196062   -0.645433   -0.000000
      5          6           0       -1.254207    0.728423   -0.000000
      6          6           0       -0.032394    1.359248   -0.000000
      7         17           0        0.022594    3.155594   -0.000000
      8         17           0        2.751104    1.507331    0.000000
      9          1           0        2.140205   -1.242249    0.000000
     10         17           0        0.056322   -3.136119    0.000000
     11         17           0       -2.729202   -1.583859   -0.000000
 ---------------------------------------------------------------------
                    Distance matrix (angstroms):
                    1          2          3          4          5
     1  C    0.000000
     2  C    1.388319   0.000000
     3  C    2.385112   1.388463   0.000000
     4  C    2.733324   2.402333   1.393672   0.000000
     5  C    2.444039   2.844255   2.443992   1.375085   0.000000
     6  C    1.393767   2.402296   2.733306   2.317945   1.375052
     7  Cl   2.728900   4.032496   4.529646   3.991607   2.742514
     8  Cl   1.763125   2.694118   3.989261   4.496055   4.080346
     9  H    2.152364   1.080739   2.152198   3.389227   3.924994
    10  Cl   3.989226   2.694131   1.763343   2.787828   4.080708
    11  Cl   4.530029   4.033032   2.729326   1.797544   2.742673
                    6          7          8          9         10
     6  C    0.000000
     7  Cl   1.797187   0.000000
     8  Cl   2.787435   3.187717   0.000000
     9  H    3.389391   4.881117   2.816627   0.000000
    10  Cl   4.496243   6.291804   5.368750   2.815903   0.000000
    11  Cl   3.991823   5.480401   6.291996   4.881374   3.188833
                   11
    11  Cl   0.000000
 Stoichiometry    C6HCl4(1-)
 Framework group  CS[SG(C6HCl4)]
 Deg. of freedom    19
 Full point group                 CS      NOp   2
 Largest Abelian subgroup         CS      NOp   2
 Largest concise Abelian subgroup C1      NOp   1
                         Standard orientation:                         
 ---------------------------------------------------------------------
 Center     Atomic      Atomic             Coordinates (Angstroms)
 Number     Number       Type             X           Y           Z
 ---------------------------------------------------------------------
      1          6           0       -1.137354    0.739730    0.000000
      2          6           0       -1.193623   -0.647448    0.000000
      3          6           0        0.000000   -1.356739    0.000000
      4          6           0        1.208661   -0.662865    0.000000
      5          6           0        1.306488    0.708736    0.000000
      6          6           0        0.103417    1.374610    0.000000
      7         17           0        0.100369    3.171794    0.000000
      8         17           0       -2.674639    1.603077    0.000000
      9          1           0       -2.143461   -1.163010    0.000000
     10         17           0       -0.115184   -3.116316    0.000000
     11         17           0        2.714039   -1.645210    0.000000
 ---------------------------------------------------------------------
 Rotational constants (GHZ):           1.1661410           0.4613341           0.3305615
 Standard basis: 6-311++G(d,p) (5D, 7F)
 There are   200 symmetry adapted cartesian basis functions of A'  symmetry.
 There are    69 symmetry adapted cartesian basis functions of A"  symmetry.
 There are   190 symmetry adapted basis functions of A'  symmetry.
 There are    69 symmetry adapted basis functions of A"  symmetry.
   259 basis functions,   437 primitive gaussians,   269 cartesian basis functions
    53 alpha electrons       53 beta electrons
       nuclear repulsion energy       804.5310614530 Hartrees.
 NAtoms=   11 NActive=   11 NUniq=   11 SFac= 1.00D+00 NAtFMM=   60 NAOKFM=F Big=F
 Integral buffers will be    131072 words long.
 Raffenetti 2 integral format.
 Two-electron integral symmetry is turned on.
 One-electron integrals computed using PRISM.
 NBasis=   259 RedAO= T EigKep=  1.29D-06  NBF=   190    69
 NBsUse=   258 1.00D-06 EigRej=  8.90D-07 NBFU=   189    69
 Initial guess from the checkpoint file:  "frequency_chks/Pentachlorobenzene_anion_product_Freq.chk"
 B after Tr=    -0.000000    0.000000   -0.000000
         Rot=    0.879041   -0.000000   -0.000000   -0.476746 Ang= -56.95 deg.
 Initial guess orbital symmetries:
       Occupied  (A') (A') (A') (A') (A') (A') (A') (A') (A') (A')
                 (A') (A') (A') (A') (A') (A') (A") (A") (A') (A')
                 (A') (A') (A") (A') (A") (A') (A') (A') (A') (A')
                 (A') (A') (A') (A') (A') (A') (A') (A') (A") (A')
                 (A') (A") (A') (A") (A') (A") (A') (A") (A') (A')
                 (A") (A") (A')
       Virtual   (A') (A') (A') (A") (A') (A") (A') (A') (A") (A')
                 (A") (A') (A") (A') (A') (A") (A') (A') (A') (A')
                 (A") (A') (A') (A") (A') (A') (A") (A") (A') (A')
                 (A') (A") (A') (A") (A') (A') (A") (A') (A') (A')
                 (A') (A') (A') (A') (A') (A') (A') (A') (A') (A')
                 (A') (A') (A') (A") (A') (A') (A") (A') (A') (A')
                 (A") (A') (A") (A') (A') (A") (A') (A') (A") (A")
                 (A') (A") (A") (A') (A') (A') (A") (A') (A') (A')
                 (A') (A") (A') (A') (A") (A') (A') (A") (A') (A")
                 (A') (A") (A") (A') (A') (A") (A') (A') (A') (A')
                 (A") (A') (A') (A') (A') (A") (A') (A') (A") (A')
                 (A') (A') (A') (A') (A") (A') (A") (A') (A") (A")
                 (A') (A') (A') (A') (A') (A") (A') (A') (A') (A")
                 (A') (A") (A') (A") (A") (A') (A') (A") (A') (A')
                 (A') (A") (A") (A') (A") (A') (A") (A") (A') (A')
                 (A') (A') (A') (A') (A') (A') (A') (A') (A") (A')
                 (A') (A") (A") (A") (A") (A') (A") (A') (A') (A')
                 (A') (A') (A') (A') (A') (A') (A') (A') (A') (A')
                 (A') (A') (A') (A') (A') (A') (A') (A') (A') (A")
                 (A") (A") (A") (A') (A') (A') (A') (A') (A') (A')
                 (A') (A') (A') (A') (A')
 Keep R1 ints in memory in symmetry-blocked form, NReq=864233843.
 Requested convergence on RMS density matrix=1.00D-08 within 128 cycles.
 Requested convergence on MAX density matrix=1.00D-06.
 Requested convergence on             energy=1.00D-06.
 No special actions if energy rises.
 SCF Done:  E(RM062X) =  -2070.00705483     A.U. after   16 cycles
            NFock= 16  Conv=0.83D-08     -V/T= 2.0023
 Calling FoFJK, ICntrl=      2127 FMM=F ISym2X=1 I1Cent= 0 IOpClX= 0 NMat=1 NMatS=1 NMatT=0.
 ***** Axes restored to original set *****
 -------------------------------------------------------------------
 Center     Atomic                   Forces (Hartrees/Bohr)
 Number     Number              X              Y              Z
 -------------------------------------------------------------------
      1        6          -0.000016178    0.000061711   -0.000000000
      2        6          -0.000074995   -0.000140369    0.000000000
      3        6           0.000060561   -0.000054251   -0.000000000
      4        6          -0.000116683    0.000015838   -0.000000000
      5        6           0.000064970   -0.000049814   -0.000000000
      6        6          -0.000051845   -0.000042660    0.000000000
      7       17          -0.000032975    0.000073683   -0.000000000
      8       17           0.000096701   -0.000028356   -0.000000000
      9        1           0.000022801    0.000035808   -0.000000000
     10       17          -0.000065998    0.000113714   -0.000000000
     11       17           0.000113643    0.000014696   -0.000000000
 -------------------------------------------------------------------
 Cartesian Forces:  Max     0.000140369 RMS     0.000057729

 GradGradGradGradGradGradGradGradGradGradGradGradGradGradGradGradGradGrad
 Berny optimization.
 Using GEDIIS/GDIIS optimizer.
 FormGI is forming the generalized inverse of G from B-inverse, IUseBI=4.
 Internal  Forces:  Max     0.000121054 RMS     0.000053358
 Search for a local minimum.
 Step number  19 out of a maximum of   57
 All quantities printed in internal units (Hartrees-Bohrs-Radians)
 Mixed Optimization -- En-DIIS/RFO-DIIS
 Swapping is turned off.
 Update second derivatives using D2CorX and points    6    7    8    9   10
                                                     11   12   13   14   15
                                                     16   17   18   19
 DE= -4.35D-06 DEPred=-2.53D-06 R= 1.72D+00
 TightC=F SS=  1.41D+00  RLast= 7.36D-03 DXNew= 2.2039D+00 2.2079D-02
 Trust test= 1.72D+00 RLast= 7.36D-03 DXMaxT set to 1.31D+00
 ITU=  1  1  1  1  1  1  1  1  1  1  1  1  1  1  1  0  0  1  0
     Eigenvalues ---    0.02237   0.02241   0.02246   0.02249   0.02252
     Eigenvalues ---    0.02262   0.02262   0.02262   0.11786   0.13903
     Eigenvalues ---    0.15822   0.20296   0.21062   0.25071   0.25545
     Eigenvalues ---    0.26251   0.26927   0.29622   0.31106   0.33461
     Eigenvalues ---    0.35728   0.43588   0.44540   0.47172   0.48383
     Eigenvalues ---    0.51189   0.56274
 En-DIIS/RFO-DIIS/Sim-DIIS IScMMF=       -3 using points:    19   18   17   16   15   14
 RFO step:  Lambda=-5.51331376D-07.
 DIIS inversion failure, remove point   6.
 DIIS inversion failure, remove point   5.
 DIIS inversion failure, remove point   4.
 RFO-DIIS uses    3 points instead of    6
 DidBck=F Rises=F RFO-DIIS coefs:    1.14596   -0.15577    0.00981    0.00000    0.00000
                  RFO-DIIS coefs:    0.00000
 Iteration  1 RMS(Cart)=  0.00045239 RMS(Int)=  0.00000009
 Iteration  2 RMS(Cart)=  0.00000010 RMS(Int)=  0.00000001
 ClnCor:  largest displacement from symmetrization is 1.88D-15 for atom     8.
 Variable       Old X    -DE/DX   Delta X   Delta X   Delta X     New X
                                 (Linear)    (Quad)   (Total)
    R1        2.62354   0.00007  -0.00005   0.00017   0.00012   2.62366
    R2        2.63384   0.00008   0.00011   0.00015   0.00026   2.63410
    R3        3.33182   0.00007   0.00001   0.00030   0.00031   3.33213
    R4        2.62381  -0.00006  -0.00007  -0.00010  -0.00017   2.62365
    R5        2.04230   0.00000   0.00004  -0.00001   0.00003   2.04233
    R6        2.63366  -0.00006  -0.00002  -0.00010  -0.00012   2.63354
    R7        3.33224  -0.00012  -0.00017  -0.00034  -0.00051   3.33172
    R8        2.59853  -0.00006   0.00004  -0.00010  -0.00006   2.59848
    R9        3.39687  -0.00010  -0.00025  -0.00022  -0.00047   3.39640
   R10        2.59847  -0.00002  -0.00026   0.00003  -0.00022   2.59825
   R11        3.39619   0.00007   0.00034   0.00024   0.00057   3.39676
    A1        2.08429  -0.00003  -0.00039   0.00009  -0.00030   2.08399
    A2        2.04196  -0.00009   0.00024  -0.00054  -0.00031   2.04166
    A3        2.15693   0.00012   0.00015   0.00045   0.00060   2.15754
    A4        2.06642   0.00000   0.00025  -0.00010   0.00015   2.06657
    A5        2.10863  -0.00005  -0.00022  -0.00023  -0.00045   2.10818
    A6        2.10813   0.00005  -0.00002   0.00033   0.00031   2.10844
    A7        2.08428   0.00002   0.00006   0.00006   0.00012   2.08439
    A8        2.04160   0.00008   0.00016   0.00027   0.00043   2.04203
    A9        2.15731  -0.00010  -0.00022  -0.00033  -0.00055   2.15677
   A10        2.16315   0.00001  -0.00026   0.00006  -0.00020   2.16294
   A11        2.04228  -0.00010   0.00014  -0.00038  -0.00024   2.04204
   A12        2.07776   0.00009   0.00012   0.00032   0.00044   2.07820
   A13        2.00510   0.00004   0.00013   0.00008   0.00021   2.00531
   A14        2.16313  -0.00004   0.00021  -0.00019   0.00003   2.16316
   A15        2.04205   0.00009  -0.00027   0.00047   0.00020   2.04225
   A16        2.07800  -0.00005   0.00006  -0.00029  -0.00023   2.07777
    D1        0.00000   0.00000   0.00000  -0.00000   0.00000   0.00000
    D2        3.14159  -0.00000   0.00000  -0.00000   0.00000   3.14159
    D3        3.14159   0.00000   0.00000   0.00000   0.00000   3.14159
    D4        0.00000   0.00000   0.00000  -0.00000   0.00000   0.00000
    D5        0.00000   0.00000   0.00000  -0.00000   0.00000   0.00000
    D6        3.14159   0.00000   0.00000  -0.00000   0.00000   3.14159
    D7        3.14159  -0.00000   0.00000  -0.00000   0.00000   3.14159
    D8        0.00000   0.00000   0.00000  -0.00000   0.00000   0.00000
    D9        0.00000   0.00000   0.00000   0.00000   0.00000   0.00000
   D10        3.14159  -0.00000   0.00000   0.00000   0.00000   3.14159
   D11        3.14159  -0.00000   0.00000   0.00000   0.00000   3.14159
   D12        0.00000   0.00000   0.00000   0.00000   0.00000   0.00000
   D13        0.00000   0.00000   0.00000  -0.00000   0.00000   0.00000
   D14        3.14159   0.00000   0.00000  -0.00000   0.00000   3.14159
   D15        3.14159   0.00000   0.00000  -0.00000   0.00000   3.14159
   D16        0.00000   0.00000   0.00000  -0.00000   0.00000   0.00000
   D17        0.00000  -0.00000   0.00000  -0.00000   0.00000   0.00000
   D18        3.14159  -0.00000   0.00000   0.00000   0.00000   3.14159
   D19        0.00000  -0.00000   0.00000   0.00000   0.00000   0.00000
   D20        3.14159  -0.00000   0.00000   0.00000   0.00000   3.14159
         Item               Value     Threshold  Converged?
 Maximum Force            0.000121     0.000450     YES
 RMS     Force            0.000053     0.000300     YES
 Maximum Displacement     0.001495     0.001800     YES
 RMS     Displacement     0.000452     0.001200     YES
 Predicted change in Energy=-2.755152D-07
 Optimization completed.
    -- Stationary point found.
                           ----------------------------
                           !   Optimized Parameters   !
                           ! (Angstroms and Degrees)  !
 --------------------------                            --------------------------
 ! Name  Definition              Value          Derivative Info.                !
 --------------------------------------------------------------------------------
 ! R1    R(1,2)                  1.3883         -DE/DX =    0.0001              !
 ! R2    R(1,6)                  1.3938         -DE/DX =    0.0001              !
 ! R3    R(1,8)                  1.7631         -DE/DX =    0.0001              !
 ! R4    R(2,3)                  1.3885         -DE/DX =   -0.0001              !
 ! R5    R(2,9)                  1.0807         -DE/DX =    0.0                 !
 ! R6    R(3,4)                  1.3937         -DE/DX =   -0.0001              !
 ! R7    R(3,10)                 1.7633         -DE/DX =   -0.0001              !
 ! R8    R(4,5)                  1.3751         -DE/DX =   -0.0001              !
 ! R9    R(4,11)                 1.7975         -DE/DX =   -0.0001              !
 ! R10   R(5,6)                  1.3751         -DE/DX =    0.0                 !
 ! R11   R(6,7)                  1.7972         -DE/DX =    0.0001              !
 ! A1    A(2,1,6)              119.4208         -DE/DX =    0.0                 !
 ! A2    A(2,1,8)              116.996          -DE/DX =   -0.0001              !
 ! A3    A(6,1,8)              123.5832         -DE/DX =    0.0001              !
 ! A4    A(1,2,3)              118.3974         -DE/DX =    0.0                 !
 ! A5    A(1,2,9)              120.8155         -DE/DX =    0.0                 !
 ! A6    A(3,2,9)              120.7871         -DE/DX =    0.0                 !
 ! A7    A(2,3,4)              119.4203         -DE/DX =    0.0                 !
 ! A8    A(2,3,10)             116.9749         -DE/DX =    0.0001              !
 ! A9    A(4,3,10)             123.6048         -DE/DX =   -0.0001              !
 ! A10   A(3,4,5)              123.9391         -DE/DX =    0.0                 !
 ! A11   A(3,4,11)             117.0138         -DE/DX =   -0.0001              !
 ! A12   A(5,4,11)             119.0471         -DE/DX =    0.0001              !
 ! A13   A(4,5,6)              114.8839         -DE/DX =    0.0                 !
 ! A14   A(1,6,5)              123.9384         -DE/DX =    0.0                 !
 ! A15   A(1,6,7)              117.0008         -DE/DX =    0.0001              !
 ! A16   A(5,6,7)              119.0608         -DE/DX =   -0.0001              !
 ! D1    D(6,1,2,3)              0.0            -DE/DX =    0.0                 !
 ! D2    D(6,1,2,9)            180.0            -DE/DX =    0.0                 !
 ! D3    D(8,1,2,3)            180.0            -DE/DX =    0.0                 !
 ! D4    D(8,1,2,9)              0.0            -DE/DX =    0.0                 !
 ! D5    D(2,1,6,5)              0.0            -DE/DX =    0.0                 !
 ! D6    D(2,1,6,7)            180.0            -DE/DX =    0.0                 !
 ! D7    D(8,1,6,5)            180.0            -DE/DX =    0.0                 !
 ! D8    D(8,1,6,7)              0.0            -DE/DX =    0.0                 !
 ! D9    D(1,2,3,4)              0.0            -DE/DX =    0.0                 !
 ! D10   D(1,2,3,10)           180.0            -DE/DX =    0.0                 !
 ! D11   D(9,2,3,4)            180.0            -DE/DX =    0.0                 !
 ! D12   D(9,2,3,10)             0.0            -DE/DX =    0.0                 !
 ! D13   D(2,3,4,5)              0.0            -DE/DX =    0.0                 !
 ! D14   D(2,3,4,11)           180.0            -DE/DX =    0.0                 !
 ! D15   D(10,3,4,5)           180.0            -DE/DX =    0.0                 !
 ! D16   D(10,3,4,11)            0.0            -DE/DX =    0.0                 !
 ! D17   D(3,4,5,6)              0.0            -DE/DX =    0.0                 !
 ! D18   D(11,4,5,6)           180.0            -DE/DX =    0.0                 !
 ! D19   D(4,5,6,1)              0.0            -DE/DX =    0.0                 !
 ! D20   D(4,5,6,7)            180.0            -DE/DX =    0.0                 !
 --------------------------------------------------------------------------------
 GradGradGradGradGradGradGradGradGradGradGradGradGradGradGradGradGradGrad

                          Input orientation:                          
 ---------------------------------------------------------------------
 Center     Atomic      Atomic             Coordinates (Angstroms)
 Number     Number       Type             X           Y           Z
 ---------------------------------------------------------------------
      1          6           0        1.189510    0.688774   -0.000000
      2          6           0        1.205664   -0.699451   -0.000000
      3          6           0       -0.007960   -1.373949   -0.000000
      4          6           0       -1.196062   -0.645433   -0.000000
      5          6           0       -1.254207    0.728423   -0.000000
      6          6           0       -0.032394    1.359248   -0.000000
      7         17           0        0.022594    3.155594   -0.000000
      8         17           0        2.751104    1.507331   -0.000000
      9          1           0        2.140205   -1.242249   -0.000000
     10         17           0        0.056322   -3.136119   -0.000000
     11         17           0       -2.729202   -1.583859   -0.000000
 ---------------------------------------------------------------------
                    Distance matrix (angstroms):
                    1          2          3          4          5
     1  C    0.000000
     2  C    1.388319   0.000000
     3  C    2.385112   1.388463   0.000000
     4  C    2.733324   2.402333   1.393672   0.000000
     5  C    2.444039   2.844255   2.443992   1.375085   0.000000
     6  C    1.393767   2.402296   2.733306   2.317945   1.375052
     7  Cl   2.728900   4.032496   4.529646   3.991607   2.742514
     8  Cl   1.763125   2.694118   3.989261   4.496055   4.080346
     9  H    2.152364   1.080739   2.152198   3.389227   3.924994
    10  Cl   3.989226   2.694131   1.763343   2.787828   4.080708
    11  Cl   4.530029   4.033032   2.729326   1.797544   2.742673
                    6          7          8          9         10
     6  C    0.000000
     7  Cl   1.797187   0.000000
     8  Cl   2.787435   3.187717   0.000000
     9  H    3.389391   4.881117   2.816627   0.000000
    10  Cl   4.496243   6.291804   5.368750   2.815903   0.000000
    11  Cl   3.991823   5.480401   6.291996   4.881374   3.188833
                   11
    11  Cl   0.000000
 Stoichiometry    C6HCl4(1-)
 Framework group  CS[SG(C6HCl4)]
 Deg. of freedom    19
 Full point group                 CS      NOp   2
 Largest Abelian subgroup         CS      NOp   2
 Largest concise Abelian subgroup C1      NOp   1
                         Standard orientation:                         
 ---------------------------------------------------------------------
 Center     Atomic      Atomic             Coordinates (Angstroms)
 Number     Number       Type             X           Y           Z
 ---------------------------------------------------------------------
      1          6           0       -1.137354    0.739730    0.000000
      2          6           0       -1.193623   -0.647448    0.000000
      3          6           0        0.000000   -1.356739    0.000000
      4          6           0        1.208661   -0.662865    0.000000
      5          6           0        1.306488    0.708736    0.000000
      6          6           0        0.103417    1.374610    0.000000
      7         17           0        0.100369    3.171794    0.000000
      8         17           0       -2.674639    1.603077    0.000000
      9          1           0       -2.143461   -1.163010    0.000000
     10         17           0       -0.115184   -3.116316    0.000000
     11         17           0        2.714039   -1.645210    0.000000
 ---------------------------------------------------------------------
 Rotational constants (GHZ):           1.1661410           0.4613341           0.3305615

 **********************************************************************

            Population analysis using the SCF Density.

 **********************************************************************

 Orbital symmetries:
       Occupied  (A') (A') (A') (A') (A') (A') (A') (A') (A') (A')
                 (A') (A') (A') (A') (A') (A') (A") (A") (A') (A')
                 (A') (A') (A") (A") (A') (A') (A') (A') (A') (A')
                 (A') (A') (A') (A') (A') (A') (A') (A') (A") (A')
                 (A') (A") (A') (A") (A') (A") (A') (A") (A') (A')
                 (A") (A") (A')
       Virtual   (A') (A') (A') (A") (A') (A") (A') (A') (A") (A')
                 (A") (A') (A") (A') (A') (A") (A') (A') (A') (A')
                 (A") (A') (A') (A") (A') (A') (A") (A") (A') (A')
                 (A') (A") (A') (A") (A') (A') (A") (A') (A') (A')
                 (A') (A') (A') (A') (A') (A') (A') (A') (A') (A')
                 (A') (A') (A') (A") (A') (A') (A") (A') (A') (A')
                 (A") (A') (A") (A') (A') (A") (A') (A') (A") (A")
                 (A') (A") (A") (A') (A') (A') (A") (A') (A') (A')
                 (A') (A") (A') (A') (A") (A') (A') (A") (A') (A")
                 (A') (A") (A") (A') (A') (A") (A') (A') (A') (A')
                 (A") (A') (A') (A') (A') (A") (A') (A') (A") (A')
                 (A') (A') (A') (A') (A") (A') (A") (A') (A") (A")
                 (A') (A') (A') (A') (A') (A") (A') (A') (A') (A")
                 (A') (A") (A') (A") (A") (A') (A') (A") (A') (A')
                 (A') (A") (A") (A') (A") (A') (A") (A") (A') (A')
                 (A') (A') (A') (A') (A') (A') (A') (A') (A") (A')
                 (A') (A") (A") (A") (A") (A') (A") (A') (A') (A')
                 (A') (A') (A') (A') (A') (A') (A') (A') (A') (A')
                 (A') (A') (A') (A') (A') (A') (A') (A') (A') (A")
                 (A") (A") (A") (A') (A') (A') (A') (A') (A') (A')
                 (A') (A') (A') (A') (A')
 The electronic state is 1-A'.
 Alpha  occ. eigenvalues -- -102.55733-102.55732-102.52439-102.52438 -10.48525
 Alpha  occ. eigenvalues --  -10.48523 -10.46706 -10.46704 -10.43444 -10.36518
 Alpha  occ. eigenvalues --   -9.69997  -9.69996  -9.66719  -9.66718  -7.42492
 Alpha  occ. eigenvalues --   -7.42491  -7.41855  -7.41853  -7.41837  -7.41836
 Alpha  occ. eigenvalues --   -7.39187  -7.39186  -7.38594  -7.38593  -7.38560
 Alpha  occ. eigenvalues --   -7.38559  -0.89009  -0.85480  -0.81316  -0.79987
 Alpha  occ. eigenvalues --   -0.77051  -0.68756  -0.66416  -0.55402  -0.52491
 Alpha  occ. eigenvalues --   -0.44276  -0.42928  -0.38638  -0.36422  -0.36406
 Alpha  occ. eigenvalues --   -0.34206  -0.31575  -0.29931  -0.27867  -0.27722
 Alpha  occ. eigenvalues --   -0.26395  -0.26065  -0.23672  -0.23234  -0.22513
 Alpha  occ. eigenvalues --   -0.15967  -0.15604  -0.10782
 Alpha virt. eigenvalues --    0.10039   0.12277   0.12885   0.14146   0.14490
 Alpha virt. eigenvalues --    0.14583   0.14660   0.17191   0.17640   0.18058
 Alpha virt. eigenvalues --    0.18341   0.18601   0.19127   0.19540   0.19636
 Alpha virt. eigenvalues --    0.21390   0.21688   0.22175   0.22204   0.22432
 Alpha virt. eigenvalues --    0.22810   0.23628   0.23962   0.24947   0.25574
 Alpha virt. eigenvalues --    0.26665   0.26720   0.27754   0.28164   0.28678
 Alpha virt. eigenvalues --    0.29242   0.31015   0.32380   0.32420   0.32468
 Alpha virt. eigenvalues --    0.34452   0.34537   0.34574   0.35192   0.36152
 Alpha virt. eigenvalues --    0.37356   0.37759   0.37779   0.38145   0.40519
 Alpha virt. eigenvalues --    0.41313   0.42046   0.42773   0.45246   0.47062
 Alpha virt. eigenvalues --    0.48735   0.49353   0.55850   0.58186   0.58718
 Alpha virt. eigenvalues --    0.59102   0.59338   0.60680   0.62416   0.62453
 Alpha virt. eigenvalues --    0.62778   0.63404   0.64026   0.64943   0.66490
 Alpha virt. eigenvalues --    0.69518   0.70561   0.74495   0.75172   0.75280
 Alpha virt. eigenvalues --    0.77685   0.78044   0.79182   0.82410   0.83416
 Alpha virt. eigenvalues --    0.83652   0.84437   0.86495   0.87411   0.90386
 Alpha virt. eigenvalues --    0.93889   0.95233   1.00626   1.01710   1.02030
 Alpha virt. eigenvalues --    1.03084   1.03813   1.04808   1.04956   1.05751
 Alpha virt. eigenvalues --    1.05800   1.08046   1.09063   1.10382   1.10501
 Alpha virt. eigenvalues --    1.11345   1.11384   1.11985   1.12621   1.13051
 Alpha virt. eigenvalues --    1.13543   1.14530   1.15071   1.16591   1.16956
 Alpha virt. eigenvalues --    1.18769   1.21803   1.24634   1.29529   1.32742
 Alpha virt. eigenvalues --    1.35273   1.39297   1.39994   1.41474   1.45323
 Alpha virt. eigenvalues --    1.46117   1.46959   1.47906   1.49205   1.52443
 Alpha virt. eigenvalues --    1.53339   1.65875   1.67512   1.71297   1.75134
 Alpha virt. eigenvalues --    1.78426   1.85456   1.90603   1.93809   1.94666
 Alpha virt. eigenvalues --    2.01637   2.04546   2.05218   2.08648   2.11987
 Alpha virt. eigenvalues --    2.16752   2.20336   2.22798   2.28360   2.31596
 Alpha virt. eigenvalues --    2.37253   2.41076   2.41590   2.42788   2.45963
 Alpha virt. eigenvalues --    2.47315   2.47854   2.49986   2.53948   2.56993
 Alpha virt. eigenvalues --    2.58433   2.61169   2.66175   2.66956   2.69086
 Alpha virt. eigenvalues --    2.72025   2.75871   2.81882   2.83339   2.83700
 Alpha virt. eigenvalues --    2.87998   2.96466   2.98869   3.07676   3.08710
 Alpha virt. eigenvalues --    3.17002   3.27372   3.29516   3.31382   3.34509
 Alpha virt. eigenvalues --    3.38602   3.49334   3.55226   3.72391   3.84360
 Alpha virt. eigenvalues --    3.96421   4.09916   4.23546   4.94907  10.04155
 Alpha virt. eigenvalues --   10.10161  10.11981  10.13861  23.52363  24.04942
 Alpha virt. eigenvalues --   24.09882  24.21431  24.28541  24.36667  26.01637
 Alpha virt. eigenvalues --   26.03465  26.10379  26.12144  26.27362  26.32988
 Alpha virt. eigenvalues --   26.33115  26.50392  26.67429  26.75695  26.87470
 Alpha virt. eigenvalues --   26.97372 216.13685 216.20606 216.22312 216.24813
          Condensed to atoms (all electrons):
               1          2          3          4          5          6
     1  C   48.143648   5.315077  -6.066137  -6.288441 -14.758024 -18.881506
     2  C    5.315077  20.872612   5.344568 -11.937080  -2.596975 -11.918214
     3  C   -6.066137   5.344568  48.192579 -18.921795 -14.797308  -6.286692
     4  C   -6.288441 -11.937080 -18.921795  45.483191   6.447819  -7.125588
     5  C  -14.758024  -2.596975 -14.797308   6.447819  25.558717   6.437855
     6  C  -18.881506 -11.918214  -6.286692  -7.125588   6.437855  45.437977
     7  Cl   1.687302   0.511209   0.467404  -0.556036  -0.842349  -2.198388
     8  Cl  -2.204883   0.250407  -0.542245   0.390557   0.751701   0.640302
     9  H   -0.189944   0.479418  -0.189996  -0.006554   0.133277  -0.006276
    10  Cl  -0.543972   0.247976  -2.206069   0.644313   0.753954   0.390190
    11  Cl   0.467853   0.511524   1.690080  -2.199659  -0.845204  -0.555044
               7          8          9         10         11
     1  C    1.687302  -2.204883  -0.189944  -0.543972   0.467853
     2  C    0.511209   0.250407   0.479418   0.247976   0.511524
     3  C    0.467404  -0.542245  -0.189996  -2.206069   1.690080
     4  C   -0.556036   0.390557  -0.006554   0.644313  -2.199659
     5  C   -0.842349   0.751701   0.133277   0.753954  -0.845204
     6  C   -2.198388   0.640302  -0.006276   0.390190  -0.555044
     7  Cl  18.027046  -0.394709  -0.002313  -0.004464  -0.018926
     8  Cl  -0.394709  17.759615   0.017612  -0.024904  -0.004486
     9  H   -0.002313   0.017612   0.564985   0.017772  -0.002326
    10  Cl  -0.004464  -0.024904   0.017772  17.758230  -0.394718
    11  Cl  -0.018926  -0.004486  -0.002326  -0.394718  18.027513
 Mulliken charges:
               1
     1  C   -0.680973
     2  C   -1.080521
     3  C   -0.684388
     4  C    0.069273
     5  C   -0.243463
     6  C    0.065385
     7  Cl   0.324224
     8  Cl   0.361034
     9  H    0.184344
    10  Cl   0.361691
    11  Cl   0.323394
 Sum of Mulliken charges =  -1.00000
 Mulliken charges with hydrogens summed into heavy atoms:
               1
     1  C   -0.680973
     2  C   -0.896178
     3  C   -0.684388
     4  C    0.069273
     5  C   -0.243463
     6  C    0.065385
     7  Cl   0.324224
     8  Cl   0.361034
    10  Cl   0.361691
    11  Cl   0.323394
 Electronic spatial extent (au):  <R**2>=           2902.7026
 Charge=             -1.0000 electrons
 Dipole moment (field-independent basis, Debye):
    X=             -4.0397    Y=             -2.1882    Z=              0.0000  Tot=              4.5942
 Quadrupole moment (field-independent basis, Debye-Ang):
   XX=           -107.3672   YY=           -112.8054   ZZ=            -90.2545
   XY=              4.1870   XZ=              0.0000   YZ=              0.0000
 Traceless Quadrupole moment (field-independent basis, Debye-Ang):
   XX=             -3.8915   YY=             -9.3297   ZZ=             13.2212
   XY=              4.1870   XZ=              0.0000   YZ=              0.0000
 Octapole moment (field-independent basis, Debye-Ang**2):
  XXX=            -30.9317  YYY=            -15.0308  ZZZ=              0.0000  XYY=            -10.1456
  XXY=             -7.1914  XXZ=              0.0000  XZZ=             -2.4135  YZZ=             -1.3050
  YYZ=              0.0000  XYZ=              0.0000
 Hexadecapole moment (field-independent basis, Debye-Ang**3):
 XXXX=          -1594.8527 YYYY=          -2435.9010 ZZZZ=           -111.3791 XXXY=            329.1805
 XXXZ=              0.0000 YYYX=            317.4800 YYYZ=              0.0000 ZZZX=              0.0000
 ZZZY=              0.0000 XXYY=           -668.3415 XXZZ=           -277.3926 YYZZ=           -412.4507
 XXYZ=              0.0000 YYXZ=              0.0000 ZZXY=            103.8301
 N-N= 8.045310614530D+02 E-N=-6.533703851453D+03  KE= 2.065276979906D+03
 Symmetry A'   KE= 1.875370249945D+03
 Symmetry A"   KE= 1.899067299603D+02
 1\1\GINC-SH02-02N47\FOpt\RM062X\6-311++G(d,p)\C6H1Cl4(1-)\JLAPIER\03-A
 pr-2026\0\\# opt freq 6-311++g(d,p) m062x\\1,2,4,5 Tetrachlorobenzene 
 anion radical\\-1,1\C,1.1895103359,0.6887739542,0.\C,1.205663675,-0.69
 94506776,0.\C,-0.0079597888,-1.3739486167,0.\C,-1.19606156,-0.64543254
 95,0.\C,-1.2542073059,0.7284227257,0.\C,-0.0323940547,1.3592482985,0.\
 Cl,0.0225941251,3.1555942501,0.\Cl,2.7511044601,1.5073305052,0.\H,2.14
 02045517,-1.2422493325,0.\Cl,0.0563223586,-3.1361193845,0.\Cl,-2.72920
 1797,-1.5838591729,0.\\Version=ES64L-G16RevB.01\State=1-A'\HF=-2070.00
 70548\RMSD=8.266e-09\RMSF=5.773e-05\Dipole=1.5637762,-0.9064743,0.\Qua
 drupole=-3.076501,-6.7531447,9.8296457,-3.2245408,0.,0.\PG=CS [SG(C6H1
 Cl4)]\\@



 IN THIS SHORT LIFE

 THAT ONLY LASTS AN HOUR

 HOW MUCH, HOW LITTLE, IS WITHIN OUR POWER....


 EMILY DICKINSON BOLTS OF MELODY NO. 521
 Job cpu time:       0 days  1 hours 29 minutes 39.1 seconds.
 Elapsed time:       0 days  0 hours 24 minutes  1.2 seconds.
 File lengths (MBytes):  RWF=     43 Int=      0 D2E=      0 Chk=      8 Scr=      1
 Normal termination of Gaussian 16 at Fri Apr  3 13:24:28 2026.
 Link1:  Proceeding to internal job step number  2.
 ----------------------------------------------------------------------
 #N Geom=AllCheck Guess=TCheck SCRF=Check GenChk RM062X/6-311++G(d,p) F
 req
 ----------------------------------------------------------------------
 1/10=4,29=7,30=1,38=1,40=1/1,3;
 2/12=2,40=1/2;
 3/5=4,6=6,7=1111,11=2,14=-4,25=1,30=1,70=2,71=2,74=-55,116=1,140=1/1,2,3;
 4/5=101/1;
 5/5=2,38=6,98=1/2;
 8/6=4,10=90,11=11/1;
 11/6=1,8=1,9=11,15=111,16=1/1,2,10;
 10/6=1/2;
 6/7=2,8=2,9=2,10=2,28=1/1;
 7/8=1,10=1,25=1/1,2,3,16;
 1/10=4,30=1/3;
 99//99;
 Structure from the checkpoint file:  "frequency_chks/Pentachlorobenzene_anion_product_Freq.chk"
 ----------------------------------------
 1,2,4,5 Tetrachlorobenzene anion radical
 ----------------------------------------
 Charge = -1 Multiplicity = 1
 Redundant internal coordinates found in file.  (old form).
 C,0,1.1895103359,0.6887739542,0.
 C,0,1.205663675,-0.6994506776,0.
 C,0,-0.0079597888,-1.3739486167,0.
 C,0,-1.19606156,-0.6454325495,0.
 C,0,-1.2542073059,0.7284227257,0.
 C,0,-0.0323940547,1.3592482985,0.
 Cl,0,0.0225941251,3.1555942501,0.
 Cl,0,2.7511044601,1.5073305052,0.
 H,0,2.1402045517,-1.2422493325,0.
 Cl,0,0.0563223586,-3.1361193845,0.
 Cl,0,-2.729201797,-1.5838591729,0.
 Recover connectivity data from disk.

 GradGradGradGradGradGradGradGradGradGradGradGradGradGradGradGradGradGrad
 Berny optimization.
 Initialization pass.
                           ----------------------------
                           !    Initial Parameters    !
                           ! (Angstroms and Degrees)  !
 --------------------------                            --------------------------
 ! Name  Definition              Value          Derivative Info.                !
 --------------------------------------------------------------------------------
 ! R1    R(1,2)                  1.3883         calculate D2E/DX2 analytically  !
 ! R2    R(1,6)                  1.3938         calculate D2E/DX2 analytically  !
 ! R3    R(1,8)                  1.7631         calculate D2E/DX2 analytically  !
 ! R4    R(2,3)                  1.3885         calculate D2E/DX2 analytically  !
 ! R5    R(2,9)                  1.0807         calculate D2E/DX2 analytically  !
 ! R6    R(3,4)                  1.3937         calculate D2E/DX2 analytically  !
 ! R7    R(3,10)                 1.7633         calculate D2E/DX2 analytically  !
 ! R8    R(4,5)                  1.3751         calculate D2E/DX2 analytically  !
 ! R9    R(4,11)                 1.7975         calculate D2E/DX2 analytically  !
 ! R10   R(5,6)                  1.3751         calculate D2E/DX2 analytically  !
 ! R11   R(6,7)                  1.7972         calculate D2E/DX2 analytically  !
 ! A1    A(2,1,6)              119.4208         calculate D2E/DX2 analytically  !
 ! A2    A(2,1,8)              116.996          calculate D2E/DX2 analytically  !
 ! A3    A(6,1,8)              123.5832         calculate D2E/DX2 analytically  !
 ! A4    A(1,2,3)              118.3974         calculate D2E/DX2 analytically  !
 ! A5    A(1,2,9)              120.8155         calculate D2E/DX2 analytically  !
 ! A6    A(3,2,9)              120.7871         calculate D2E/DX2 analytically  !
 ! A7    A(2,3,4)              119.4203         calculate D2E/DX2 analytically  !
 ! A8    A(2,3,10)             116.9749         calculate D2E/DX2 analytically  !
 ! A9    A(4,3,10)             123.6048         calculate D2E/DX2 analytically  !
 ! A10   A(3,4,5)              123.9391         calculate D2E/DX2 analytically  !
 ! A11   A(3,4,11)             117.0138         calculate D2E/DX2 analytically  !
 ! A12   A(5,4,11)             119.0471         calculate D2E/DX2 analytically  !
 ! A13   A(4,5,6)              114.8839         calculate D2E/DX2 analytically  !
 ! A14   A(1,6,5)              123.9384         calculate D2E/DX2 analytically  !
 ! A15   A(1,6,7)              117.0008         calculate D2E/DX2 analytically  !
 ! A16   A(5,6,7)              119.0608         calculate D2E/DX2 analytically  !
 ! D1    D(6,1,2,3)              0.0            calculate D2E/DX2 analytically  !
 ! D2    D(6,1,2,9)            180.0            calculate D2E/DX2 analytically  !
 ! D3    D(8,1,2,3)            180.0            calculate D2E/DX2 analytically  !
 ! D4    D(8,1,2,9)              0.0            calculate D2E/DX2 analytically  !
 ! D5    D(2,1,6,5)              0.0            calculate D2E/DX2 analytically  !
 ! D6    D(2,1,6,7)            180.0            calculate D2E/DX2 analytically  !
 ! D7    D(8,1,6,5)            180.0            calculate D2E/DX2 analytically  !
 ! D8    D(8,1,6,7)              0.0            calculate D2E/DX2 analytically  !
 ! D9    D(1,2,3,4)              0.0            calculate D2E/DX2 analytically  !
 ! D10   D(1,2,3,10)           180.0            calculate D2E/DX2 analytically  !
 ! D11   D(9,2,3,4)            180.0            calculate D2E/DX2 analytically  !
 ! D12   D(9,2,3,10)             0.0            calculate D2E/DX2 analytically  !
 ! D13   D(2,3,4,5)              0.0            calculate D2E/DX2 analytically  !
 ! D14   D(2,3,4,11)           180.0            calculate D2E/DX2 analytically  !
 ! D15   D(10,3,4,5)           180.0            calculate D2E/DX2 analytically  !
 ! D16   D(10,3,4,11)            0.0            calculate D2E/DX2 analytically  !
 ! D17   D(3,4,5,6)              0.0            calculate D2E/DX2 analytically  !
 ! D18   D(11,4,5,6)           180.0            calculate D2E/DX2 analytically  !
 ! D19   D(4,5,6,1)              0.0            calculate D2E/DX2 analytically  !
 ! D20   D(4,5,6,7)            180.0            calculate D2E/DX2 analytically  !
 --------------------------------------------------------------------------------
 Trust Radius=3.00D-01 FncErr=1.00D-07 GrdErr=1.00D-07 EigMax=2.50D+02 EigMin=1.00D-04
 Number of steps in this run=      2 maximum allowed number of steps=      2.
 GradGradGradGradGradGradGradGradGradGradGradGradGradGradGradGradGradGrad

                          Input orientation:                          
 ---------------------------------------------------------------------
 Center     Atomic      Atomic             Coordinates (Angstroms)
 Number     Number       Type             X           Y           Z
 ---------------------------------------------------------------------
      1          6           0        1.189510    0.688774   -0.000000
      2          6           0        1.205664   -0.699451   -0.000000
      3          6           0       -0.007960   -1.373949   -0.000000
      4          6           0       -1.196062   -0.645433   -0.000000
      5          6           0       -1.254207    0.728423   -0.000000
      6          6           0       -0.032394    1.359248   -0.000000
      7         17           0        0.022594    3.155594   -0.000000
      8         17           0        2.751104    1.507331   -0.000000
      9          1           0        2.140205   -1.242249   -0.000000
     10         17           0        0.056322   -3.136119   -0.000000
     11         17           0       -2.729202   -1.583859   -0.000000
 ---------------------------------------------------------------------
                    Distance matrix (angstroms):
                    1          2          3          4          5
     1  C    0.000000
     2  C    1.388319   0.000000
     3  C    2.385112   1.388463   0.000000
     4  C    2.733324   2.402333   1.393672   0.000000
     5  C    2.444039   2.844255   2.443992   1.375085   0.000000
     6  C    1.393767   2.402296   2.733306   2.317945   1.375052
     7  Cl   2.728900   4.032496   4.529646   3.991607   2.742514
     8  Cl   1.763125   2.694118   3.989261   4.496055   4.080346
     9  H    2.152364   1.080739   2.152198   3.389227   3.924994
    10  Cl   3.989226   2.694131   1.763343   2.787828   4.080708
    11  Cl   4.530029   4.033032   2.729326   1.797544   2.742673
                    6          7          8          9         10
     6  C    0.000000
     7  Cl   1.797187   0.000000
     8  Cl   2.787435   3.187717   0.000000
     9  H    3.389391   4.881117   2.816627   0.000000
    10  Cl   4.496243   6.291804   5.368750   2.815903   0.000000
    11  Cl   3.991823   5.480401   6.291996   4.881374   3.188833
                   11
    11  Cl   0.000000
 Stoichiometry    C6HCl4(1-)
 Framework group  CS[SG(C6HCl4)]
 Deg. of freedom    19
 Full point group                 CS      NOp   2
 Largest Abelian subgroup         CS      NOp   2
 Largest concise Abelian subgroup C1      NOp   1
                         Standard orientation:                         
 ---------------------------------------------------------------------
 Center     Atomic      Atomic             Coordinates (Angstroms)
 Number     Number       Type             X           Y           Z
 ---------------------------------------------------------------------
      1          6           0       -1.137354    0.739730    0.000000
      2          6           0       -1.193623   -0.647448    0.000000
      3          6           0        0.000000   -1.356739    0.000000
      4          6           0        1.208661   -0.662865    0.000000
      5          6           0        1.306488    0.708736    0.000000
      6          6           0        0.103417    1.374610    0.000000
      7         17           0        0.100369    3.171794    0.000000
      8         17           0       -2.674639    1.603077    0.000000
      9          1           0       -2.143461   -1.163010    0.000000
     10         17           0       -0.115184   -3.116316    0.000000
     11         17           0        2.714039   -1.645210    0.000000
 ---------------------------------------------------------------------
 Rotational constants (GHZ):           1.1661410           0.4613341           0.3305615
 Standard basis: 6-311++G(d,p) (5D, 7F)
 There are   200 symmetry adapted cartesian basis functions of A'  symmetry.
 There are    69 symmetry adapted cartesian basis functions of A"  symmetry.
 There are   190 symmetry adapted basis functions of A'  symmetry.
 There are    69 symmetry adapted basis functions of A"  symmetry.
   259 basis functions,   437 primitive gaussians,   269 cartesian basis functions
    53 alpha electrons       53 beta electrons
       nuclear repulsion energy       804.5310614530 Hartrees.
 NAtoms=   11 NActive=   11 NUniq=   11 SFac= 1.00D+00 NAtFMM=   60 NAOKFM=F Big=F
 Integral buffers will be    131072 words long.
 Raffenetti 2 integral format.
 Two-electron integral symmetry is turned on.
 One-electron integrals computed using PRISM.
 NBasis=   259 RedAO= T EigKep=  1.29D-06  NBF=   190    69
 NBsUse=   258 1.00D-06 EigRej=  8.90D-07 NBFU=   189    69
 Initial guess from the checkpoint file:  "frequency_chks/Pentachlorobenzene_anion_product_Freq.chk"
 B after Tr=    -0.000000    0.000000    0.000000
         Rot=    1.000000    0.000000    0.000000    0.000000 Ang=   0.00 deg.
 Initial guess orbital symmetries:
       Occupied  (A') (A') (A') (A') (A') (A') (A') (A') (A') (A')
                 (A') (A') (A') (A') (A') (A') (A") (A") (A') (A')
                 (A') (A') (A") (A") (A') (A') (A') (A') (A') (A')
                 (A') (A') (A') (A') (A') (A') (A') (A') (A") (A')
                 (A') (A") (A') (A") (A') (A") (A') (A") (A') (A')
                 (A") (A") (A')
       Virtual   (A') (A') (A') (A") (A') (A") (A') (A') (A") (A')
                 (A") (A') (A") (A') (A') (A") (A') (A') (A') (A')
                 (A") (A') (A') (A") (A') (A') (A") (A") (A') (A')
                 (A') (A") (A') (A") (A') (A') (A") (A') (A') (A')
                 (A') (A') (A') (A') (A') (A') (A') (A') (A') (A')
                 (A') (A') (A') (A") (A') (A') (A") (A') (A') (A')
                 (A") (A') (A") (A') (A') (A") (A') (A') (A") (A")
                 (A') (A") (A") (A') (A') (A') (A") (A') (A') (A')
                 (A') (A") (A') (A') (A") (A') (A') (A") (A') (A")
                 (A') (A") (A") (A') (A') (A") (A') (A') (A') (A')
                 (A") (A') (A') (A') (A') (A") (A') (A') (A") (A')
                 (A') (A') (A') (A') (A") (A') (A") (A') (A") (A")
                 (A') (A') (A') (A') (A') (A") (A') (A') (A') (A")
                 (A') (A") (A') (A") (A") (A') (A') (A") (A') (A')
                 (A') (A") (A") (A') (A") (A') (A") (A") (A') (A')
                 (A') (A') (A') (A') (A') (A') (A') (A') (A") (A')
                 (A') (A") (A") (A") (A") (A') (A") (A') (A') (A')
                 (A') (A') (A') (A') (A') (A') (A') (A') (A') (A')
                 (A') (A') (A') (A') (A') (A') (A') (A') (A') (A")
                 (A") (A") (A") (A') (A') (A') (A') (A') (A') (A')
                 (A') (A') (A') (A') (A')
 Keep R1 ints in memory in symmetry-blocked form, NReq=864233843.
 Requested convergence on RMS density matrix=1.00D-08 within 128 cycles.
 Requested convergence on MAX density matrix=1.00D-06.
 Requested convergence on             energy=1.00D-06.
 No special actions if energy rises.
 SCF Done:  E(RM062X) =  -2070.00705483     A.U. after    2 cycles
            NFock=  2  Conv=0.58D-08     -V/T= 2.0023
 DoSCS=F DFT=T ScalE2(SS,OS)=  1.000000  1.000000
 Range of M.O.s used for correlation:     1   258
 NBasis=   259 NAE=    53 NBE=    53 NFC=     0 NFV=     0
 NROrb=    258 NOA=    53 NOB=    53 NVA=   205 NVB=   205

 **** Warning!!: The largest alpha MO coefficient is  0.23168463D+03

 Symmetrizing basis deriv contribution to polar:
 IMax=3 JMax=2 DiffMx= 0.00D+00
 G2DrvN: will do    12 centers at a time, making    1 passes.
 Calling FoFCou, ICntrl=  3107 FMM=F I1Cent=   0 AccDes= 0.00D+00.
 End of G2Drv F.D. properties file   721 does not exist.
 End of G2Drv F.D. properties file   722 does not exist.
 End of G2Drv F.D. properties file   788 does not exist.
          IDoAtm=11111111111
          Differentiating once with respect to electric field.
                with respect to dipole field.
          Differentiating once with respect to nuclear coordinates.
 Keep R1 ints in memory in symmetry-blocked form, NReq=864239086.
          There are    36 degrees of freedom in the 1st order CPHF.  IDoFFX=6 NUNeed=     3.
     33 vectors produced by pass  0 Test12= 3.02D-14 2.78D-09 XBig12= 1.26D+02 4.89D+00.
 AX will form    33 AO Fock derivatives at one time.
     33 vectors produced by pass  1 Test12= 3.02D-14 2.78D-09 XBig12= 2.72D+01 1.25D+00.
     33 vectors produced by pass  2 Test12= 3.02D-14 2.78D-09 XBig12= 8.80D-01 1.92D-01.
     33 vectors produced by pass  3 Test12= 3.02D-14 2.78D-09 XBig12= 4.77D-02 5.53D-02.
     33 vectors produced by pass  4 Test12= 3.02D-14 2.78D-09 XBig12= 7.58D-04 4.58D-03.
     33 vectors produced by pass  5 Test12= 3.02D-14 2.78D-09 XBig12= 5.55D-06 3.83D-04.
     33 vectors produced by pass  6 Test12= 3.02D-14 2.78D-09 XBig12= 4.55D-08 2.73D-05.
     29 vectors produced by pass  7 Test12= 3.02D-14 2.78D-09 XBig12= 2.90D-10 2.32D-06.
      3 vectors produced by pass  8 Test12= 3.02D-14 2.78D-09 XBig12= 1.53D-12 1.64D-07.
      1 vectors produced by pass  9 Test12= 3.02D-14 2.78D-09 XBig12= 6.61D-15 1.11D-08.
 InvSVY:  IOpt=1 It=  1 EMax= 3.55D-15
 Solved reduced A of dimension   264 with    36 vectors.
 Isotropic polarizability for W=    0.000000      133.55 Bohr**3.
 End of Minotr F.D. properties file   721 does not exist.
 End of Minotr F.D. properties file   722 does not exist.
 End of Minotr F.D. properties file   788 does not exist.

 **********************************************************************

            Population analysis using the SCF Density.

 **********************************************************************

 Orbital symmetries:
       Occupied  (A') (A') (A') (A') (A') (A') (A') (A') (A') (A')
                 (A') (A') (A') (A') (A') (A') (A") (A") (A') (A')
                 (A') (A') (A") (A") (A') (A') (A') (A') (A') (A')
                 (A') (A') (A') (A') (A') (A') (A') (A') (A") (A')
                 (A') (A") (A') (A") (A') (A") (A') (A") (A') (A')
                 (A") (A") (A')
       Virtual   (A') (A') (A') (A") (A') (A") (A') (A') (A") (A')
                 (A") (A') (A") (A') (A') (A") (A') (A') (A') (A')
                 (A") (A') (A') (A") (A') (A') (A") (A") (A') (A')
                 (A') (A") (A') (A") (A') (A') (A") (A') (A') (A')
                 (A') (A') (A') (A') (A') (A') (A') (A') (A') (A')
                 (A') (A') (A') (A") (A') (A') (A") (A') (A') (A')
                 (A") (A') (A") (A') (A') (A") (A') (A') (A") (A")
                 (A') (A") (A") (A') (A') (A') (A") (A') (A') (A')
                 (A') (A") (A') (A') (A") (A') (A') (A") (A') (A")
                 (A') (A") (A") (A') (A') (A") (A') (A') (A') (A')
                 (A") (A') (A') (A') (A') (A") (A') (A') (A") (A')
                 (A') (A') (A') (A') (A") (A') (A") (A') (A") (A")
                 (A') (A') (A') (A') (A') (A") (A') (A') (A') (A")
                 (A') (A") (A') (A") (A") (A') (A') (A") (A') (A')
                 (A') (A") (A") (A') (A") (A') (A") (A") (A') (A')
                 (A') (A') (A') (A') (A') (A') (A') (A') (A") (A')
                 (A') (A") (A") (A") (A") (A') (A") (A') (A') (A')
                 (A') (A') (A') (A') (A') (A') (A') (A') (A') (A')
                 (A') (A') (A') (A') (A') (A') (A') (A') (A') (A")
                 (A") (A") (A") (A') (A') (A') (A') (A') (A') (A')
                 (A') (A') (A') (A') (A')
 The electronic state is 1-A'.
 Alpha  occ. eigenvalues -- -102.55733-102.55732-102.52439-102.52438 -10.48525
 Alpha  occ. eigenvalues --  -10.48523 -10.46706 -10.46704 -10.43444 -10.36518
 Alpha  occ. eigenvalues --   -9.69997  -9.69996  -9.66719  -9.66718  -7.42492
 Alpha  occ. eigenvalues --   -7.42491  -7.41855  -7.41853  -7.41837  -7.41836
 Alpha  occ. eigenvalues --   -7.39187  -7.39186  -7.38594  -7.38593  -7.38560
 Alpha  occ. eigenvalues --   -7.38559  -0.89009  -0.85480  -0.81316  -0.79987
 Alpha  occ. eigenvalues --   -0.77051  -0.68756  -0.66416  -0.55402  -0.52491
 Alpha  occ. eigenvalues --   -0.44276  -0.42928  -0.38638  -0.36422  -0.36406
 Alpha  occ. eigenvalues --   -0.34206  -0.31575  -0.29931  -0.27867  -0.27722
 Alpha  occ. eigenvalues --   -0.26395  -0.26065  -0.23672  -0.23234  -0.22513
 Alpha  occ. eigenvalues --   -0.15967  -0.15604  -0.10782
 Alpha virt. eigenvalues --    0.10039   0.12277   0.12885   0.14146   0.14490
 Alpha virt. eigenvalues --    0.14583   0.14660   0.17191   0.17640   0.18058
 Alpha virt. eigenvalues --    0.18341   0.18601   0.19127   0.19540   0.19636
 Alpha virt. eigenvalues --    0.21390   0.21688   0.22175   0.22204   0.22432
 Alpha virt. eigenvalues --    0.22810   0.23628   0.23962   0.24947   0.25574
 Alpha virt. eigenvalues --    0.26665   0.26720   0.27754   0.28164   0.28678
 Alpha virt. eigenvalues --    0.29242   0.31015   0.32380   0.32420   0.32468
 Alpha virt. eigenvalues --    0.34452   0.34537   0.34574   0.35192   0.36152
 Alpha virt. eigenvalues --    0.37356   0.37759   0.37779   0.38145   0.40519
 Alpha virt. eigenvalues --    0.41313   0.42046   0.42773   0.45246   0.47062
 Alpha virt. eigenvalues --    0.48735   0.49353   0.55850   0.58186   0.58718
 Alpha virt. eigenvalues --    0.59102   0.59338   0.60680   0.62416   0.62453
 Alpha virt. eigenvalues --    0.62778   0.63404   0.64026   0.64943   0.66490
 Alpha virt. eigenvalues --    0.69518   0.70561   0.74495   0.75172   0.75280
 Alpha virt. eigenvalues --    0.77685   0.78044   0.79182   0.82410   0.83416
 Alpha virt. eigenvalues --    0.83652   0.84437   0.86495   0.87411   0.90386
 Alpha virt. eigenvalues --    0.93889   0.95233   1.00626   1.01710   1.02030
 Alpha virt. eigenvalues --    1.03084   1.03813   1.04808   1.04956   1.05751
 Alpha virt. eigenvalues --    1.05800   1.08046   1.09063   1.10382   1.10501
 Alpha virt. eigenvalues --    1.11345   1.11384   1.11985   1.12621   1.13051
 Alpha virt. eigenvalues --    1.13543   1.14530   1.15071   1.16591   1.16956
 Alpha virt. eigenvalues --    1.18769   1.21803   1.24634   1.29529   1.32742
 Alpha virt. eigenvalues --    1.35273   1.39297   1.39994   1.41474   1.45323
 Alpha virt. eigenvalues --    1.46117   1.46959   1.47906   1.49205   1.52443
 Alpha virt. eigenvalues --    1.53339   1.65875   1.67512   1.71297   1.75134
 Alpha virt. eigenvalues --    1.78426   1.85456   1.90603   1.93809   1.94666
 Alpha virt. eigenvalues --    2.01637   2.04546   2.05218   2.08648   2.11987
 Alpha virt. eigenvalues --    2.16752   2.20336   2.22798   2.28360   2.31596
 Alpha virt. eigenvalues --    2.37253   2.41076   2.41590   2.42788   2.45963
 Alpha virt. eigenvalues --    2.47315   2.47854   2.49986   2.53948   2.56993
 Alpha virt. eigenvalues --    2.58433   2.61169   2.66175   2.66956   2.69086
 Alpha virt. eigenvalues --    2.72025   2.75871   2.81882   2.83339   2.83700
 Alpha virt. eigenvalues --    2.87998   2.96466   2.98869   3.07676   3.08710
 Alpha virt. eigenvalues --    3.17002   3.27372   3.29516   3.31382   3.34509
 Alpha virt. eigenvalues --    3.38602   3.49334   3.55226   3.72391   3.84360
 Alpha virt. eigenvalues --    3.96421   4.09916   4.23546   4.94907  10.04155
 Alpha virt. eigenvalues --   10.10161  10.11981  10.13861  23.52363  24.04942
 Alpha virt. eigenvalues --   24.09882  24.21431  24.28541  24.36667  26.01637
 Alpha virt. eigenvalues --   26.03465  26.10379  26.12144  26.27362  26.32988
 Alpha virt. eigenvalues --   26.33115  26.50392  26.67429  26.75695  26.87470
 Alpha virt. eigenvalues --   26.97372 216.13685 216.20606 216.22312 216.24813
          Condensed to atoms (all electrons):
               1          2          3          4          5          6
     1  C   48.143646   5.315077  -6.066136  -6.288441 -14.758024 -18.881506
     2  C    5.315077  20.872612   5.344567 -11.937079  -2.596974 -11.918214
     3  C   -6.066136   5.344567  48.192578 -18.921795 -14.797308  -6.286692
     4  C   -6.288441 -11.937079 -18.921795  45.483189   6.447819  -7.125587
     5  C  -14.758024  -2.596974 -14.797308   6.447819  25.558717   6.437854
     6  C  -18.881506 -11.918214  -6.286692  -7.125587   6.437854  45.437976
     7  Cl   1.687302   0.511209   0.467404  -0.556036  -0.842349  -2.198388
     8  Cl  -2.204883   0.250407  -0.542245   0.390557   0.751701   0.640301
     9  H   -0.189944   0.479418  -0.189996  -0.006554   0.133277  -0.006276
    10  Cl  -0.543972   0.247976  -2.206069   0.644313   0.753954   0.390190
    11  Cl   0.467853   0.511524   1.690080  -2.199659  -0.845204  -0.555044
               7          8          9         10         11
     1  C    1.687302  -2.204883  -0.189944  -0.543972   0.467853
     2  C    0.511209   0.250407   0.479418   0.247976   0.511524
     3  C    0.467404  -0.542245  -0.189996  -2.206069   1.690080
     4  C   -0.556036   0.390557  -0.006554   0.644313  -2.199659
     5  C   -0.842349   0.751701   0.133277   0.753954  -0.845204
     6  C   -2.198388   0.640301  -0.006276   0.390190  -0.555044
     7  Cl  18.027046  -0.394709  -0.002313  -0.004464  -0.018926
     8  Cl  -0.394709  17.759615   0.017612  -0.024904  -0.004486
     9  H   -0.002313   0.017612   0.564985   0.017772  -0.002326
    10  Cl  -0.004464  -0.024904   0.017772  17.758230  -0.394718
    11  Cl  -0.018926  -0.004486  -0.002326  -0.394718  18.027513
 Mulliken charges:
               1
     1  C   -0.680973
     2  C   -1.080521
     3  C   -0.684388
     4  C    0.069273
     5  C   -0.243463
     6  C    0.065385
     7  Cl   0.324224
     8  Cl   0.361034
     9  H    0.184344
    10  Cl   0.361691
    11  Cl   0.323394
 Sum of Mulliken charges =  -1.00000
 Mulliken charges with hydrogens summed into heavy atoms:
               1
     1  C   -0.680973
     2  C   -0.896178
     3  C   -0.684388
     4  C    0.069273
     5  C   -0.243463
     6  C    0.065385
     7  Cl   0.324224
     8  Cl   0.361034
    10  Cl   0.361691
    11  Cl   0.323394
 APT charges:
               1
     1  C    0.424518
     2  C   -0.281568
     3  C    0.417477
     4  C    0.609501
     5  C   -0.805323
     6  C    0.603702
     7  Cl  -0.546197
     8  Cl  -0.467861
     9  H    0.059015
    10  Cl  -0.465208
    11  Cl  -0.548055
 Sum of APT charges =  -1.00000
 APT charges with hydrogens summed into heavy atoms:
               1
     1  C    0.424518
     2  C   -0.222553
     3  C    0.417477
     4  C    0.609501
     5  C   -0.805323
     6  C    0.603702
     7  Cl  -0.546197
     8  Cl  -0.467861
    10  Cl  -0.465208
    11  Cl  -0.548055
 Electronic spatial extent (au):  <R**2>=           2902.7026
 Charge=             -1.0000 electrons
 Dipole moment (field-independent basis, Debye):
    X=             -4.0397    Y=             -2.1882    Z=              0.0000  Tot=              4.5942
 Quadrupole moment (field-independent basis, Debye-Ang):
   XX=           -107.3672   YY=           -112.8054   ZZ=            -90.2545
   XY=              4.1870   XZ=              0.0000   YZ=              0.0000
 Traceless Quadrupole moment (field-independent basis, Debye-Ang):
   XX=             -3.8915   YY=             -9.3297   ZZ=             13.2212
   XY=              4.1870   XZ=              0.0000   YZ=              0.0000
 Octapole moment (field-independent basis, Debye-Ang**2):
  XXX=            -30.9317  YYY=            -15.0308  ZZZ=              0.0000  XYY=            -10.1456
  XXY=             -7.1914  XXZ=              0.0000  XZZ=             -2.4135  YZZ=             -1.3050
  YYZ=              0.0000  XYZ=              0.0000
 Hexadecapole moment (field-independent basis, Debye-Ang**3):
 XXXX=          -1594.8527 YYYY=          -2435.9010 ZZZZ=           -111.3791 XXXY=            329.1805
 XXXZ=              0.0000 YYYX=            317.4800 YYYZ=              0.0000 ZZZX=              0.0000
 ZZZY=              0.0000 XXYY=           -668.3415 XXZZ=           -277.3926 YYZZ=           -412.4507
 XXYZ=              0.0000 YYXZ=              0.0000 ZZXY=            103.8301
 N-N= 8.045310614530D+02 E-N=-6.533703851459D+03  KE= 2.065276979908D+03
 Symmetry A'   KE= 1.875370249947D+03
 Symmetry A"   KE= 1.899067299611D+02
  Exact polarizability: 151.212 -19.936 177.134   0.000   0.000  72.312
 Approx polarizability: 185.935 -17.513 208.755  -0.000  -0.000  93.564
 Calling FoFJK, ICntrl=    100127 FMM=F ISym2X=1 I1Cent= 0 IOpClX= 0 NMat=1 NMatS=1 NMatT=0.
 Full mass-weighted force constant matrix:
 Low frequencies ---  -12.3338  -11.5182   -4.9332    0.0023    0.0027    0.0031
 Low frequencies ---   45.5640  127.9183  196.9935
 Diagonal vibrational polarizability:
       14.3033107      25.1605822       3.9972686
 Harmonic frequencies (cm**-1), IR intensities (KM/Mole), Raman scattering
 activities (A**4/AMU), depolarization ratios for plane and unpolarized
 incident light, reduced masses (AMU), force constants (mDyne/A),
 and normal coordinates:
                      1                      2                      3
                     A"                     A"                     A'
 Frequencies --     45.5340               127.9100               196.9907
 Red. masses --     34.2816                13.7068                33.5194
 Frc consts  --      0.0419                 0.1321                 0.7664
 IR Inten    --      0.0000                 0.1447                 0.2414
  Atom  AN      X      Y      Z        X      Y      Z        X      Y      Z
     1   6     0.00   0.00   0.08     0.00   0.00   0.32    -0.05  -0.04   0.00
     2   6     0.00   0.00  -0.02     0.00   0.00   0.42    -0.12  -0.06  -0.00
     3   6     0.00   0.00  -0.11     0.00   0.00   0.31    -0.06  -0.01  -0.00
     4   6     0.00   0.00   0.06     0.00  -0.00   0.32    -0.08   0.01   0.00
     5   6     0.00   0.00  -0.02     0.00   0.00   0.41     0.00   0.00   0.00
     6   6     0.00   0.00  -0.08     0.00   0.00   0.32    -0.04  -0.07  -0.00
     7  17     0.00   0.00  -0.48    -0.00   0.00  -0.19    -0.40  -0.05  -0.00
     8  17    -0.00  -0.00   0.50     0.00  -0.00  -0.17     0.25   0.47   0.00
     9   1     0.00   0.00  -0.02     0.00   0.00   0.35    -0.12  -0.06  -0.00
    10  17    -0.00   0.00  -0.49    -0.00   0.00  -0.19     0.56  -0.04  -0.00
    11  17     0.00   0.00   0.50     0.00  -0.00  -0.17    -0.28  -0.33   0.00
                      4                      5                      6
                     A'                     A"                     A'
 Frequencies --    211.1632               214.6462               214.7045
 Red. masses --     22.6940                 8.4173                31.5208
 Frc consts  --      0.5962                 0.2285                 0.8561
 IR Inten    --      0.6658                 4.2211                 0.9867
  Atom  AN      X      Y      Z        X      Y      Z        X      Y      Z
     1   6    -0.23  -0.11  -0.00     0.00   0.00  -0.18    -0.12   0.11  -0.00
     2   6    -0.23  -0.15  -0.00     0.00   0.00  -0.43    -0.10   0.08  -0.00
     3   6    -0.19  -0.17  -0.00     0.00   0.00  -0.17    -0.10   0.10  -0.00
     4   6    -0.22  -0.12   0.00     0.00   0.00   0.19    -0.14   0.09   0.00
     5   6    -0.25  -0.15   0.00     0.00   0.00   0.47    -0.10   0.06   0.00
     6   6    -0.21  -0.16   0.00     0.00   0.00   0.18    -0.08   0.12   0.00
     7  17     0.28  -0.22  -0.00    -0.00   0.00  -0.10     0.51   0.12   0.00
     8  17    -0.02   0.32   0.00     0.00  -0.00   0.10    -0.38  -0.24  -0.00
     9   1    -0.24  -0.15  -0.00     0.00   0.00  -0.64    -0.11   0.08  -0.00
    10  17     0.13  -0.24   0.00    -0.00   0.00   0.10     0.46   0.10   0.00
    11  17     0.07   0.44  -0.00     0.00  -0.00  -0.10    -0.36  -0.17  -0.00
                      7                      8                      9
                     A'                     A'                     A"
 Frequencies --    313.0588               322.1869               375.1039
 Red. masses --     28.9394                29.8444                12.4979
 Frc consts  --      1.6711                 1.8253                 1.0361
 IR Inten    --      3.8848                 0.5829                 0.0002
  Atom  AN      X      Y      Z        X      Y      Z        X      Y      Z
     1   6     0.24  -0.06  -0.00    -0.13   0.13  -0.00     0.00  -0.00  -0.53
     2   6     0.05  -0.08  -0.00     0.06   0.03  -0.00     0.00  -0.00   0.01
     3   6    -0.08  -0.24  -0.00     0.04  -0.17  -0.00     0.00   0.00   0.53
     4   6    -0.20   0.01   0.00     0.07  -0.16   0.00     0.00   0.00   0.46
     5   6    -0.03   0.06   0.00    -0.26  -0.14   0.00     0.00   0.00   0.00
     6   6     0.10   0.18  -0.00    -0.10   0.14  -0.00     0.00   0.00  -0.46
     7  17    -0.01   0.45   0.00    -0.01   0.49  -0.00    -0.00  -0.00   0.07
     8  17     0.36  -0.21   0.00    -0.31   0.22   0.00    -0.00   0.00   0.08
     9   1    -0.08   0.14   0.00     0.05   0.03   0.00     0.00  -0.00   0.01
    10  17    -0.02  -0.42   0.00     0.02  -0.37  -0.00    -0.00  -0.00  -0.08
    11  17    -0.37   0.24  -0.00     0.41  -0.28   0.00    -0.00   0.00  -0.07
                     10                     11                     12
                     A'                     A"                     A'
 Frequencies --    457.7201               480.1843               519.5601
 Red. masses --     16.9952                 4.9100                 7.8467
 Frc consts  --      2.0979                 0.6670                 1.2480
 IR Inten    --     13.6249                 1.2217                 0.1292
  Atom  AN      X      Y      Z        X      Y      Z        X      Y      Z
     1   6    -0.18  -0.19  -0.00     0.00  -0.00  -0.22    -0.18  -0.24  -0.00
     2   6    -0.31  -0.17  -0.00    -0.00  -0.00   0.28     0.15  -0.28   0.00
     3   6    -0.25  -0.04   0.00    -0.00  -0.00  -0.22     0.31   0.03  -0.00
     4   6    -0.23  -0.13   0.00    -0.00  -0.00  -0.19     0.18   0.24  -0.00
     5   6    -0.39  -0.21  -0.00     0.00  -0.00   0.34    -0.14   0.27   0.00
     6   6    -0.25  -0.13  -0.00     0.00  -0.00  -0.18    -0.29  -0.01  -0.00
     7  17     0.05   0.20  -0.00    -0.00  -0.00   0.01     0.07   0.02   0.00
     8  17     0.28  -0.13   0.00    -0.00   0.00   0.01     0.04   0.05  -0.00
     9   1    -0.30  -0.18  -0.00    -0.00   0.00   0.80     0.31  -0.57   0.00
    10  17     0.04   0.31  -0.00     0.00   0.00   0.01    -0.07  -0.01  -0.00
    11  17     0.19  -0.07   0.00     0.00   0.00   0.01    -0.06  -0.05   0.00
                     13                     14                     15
                     A'                     A"                     A'
 Frequencies --    587.3196               639.3533               667.9766
 Red. masses --     12.7350                12.0755                 9.8933
 Frc consts  --      2.5882                 2.9083                 2.6008
 IR Inten    --    224.3504                 0.0003                14.3793
  Atom  AN      X      Y      Z        X      Y      Z        X      Y      Z
     1   6    -0.06   0.24  -0.00     0.00  -0.00  -0.46    -0.03  -0.20   0.00
     2   6    -0.13   0.25   0.00    -0.00  -0.00  -0.00    -0.42  -0.22  -0.00
     3   6    -0.17   0.17  -0.00    -0.00  -0.00   0.47    -0.19   0.09   0.00
     4   6    -0.18   0.35   0.00    -0.00   0.00  -0.53    -0.07   0.21   0.00
     5   6    -0.18   0.32   0.00     0.00  -0.00  -0.00     0.51   0.28  -0.00
     6   6    -0.20   0.35  -0.00     0.00   0.00   0.53     0.13  -0.17   0.00
     7  17     0.02  -0.18   0.00    -0.00   0.00  -0.03     0.02   0.08  -0.00
     8  17     0.15  -0.11   0.00    -0.00   0.00   0.02    -0.04   0.01  -0.00
     9   1    -0.22   0.41   0.00    -0.00  -0.00  -0.00    -0.42  -0.22   0.00
    10  17     0.01  -0.18  -0.00     0.00   0.00  -0.03    -0.01  -0.05   0.00
    11  17     0.14  -0.12   0.00     0.00   0.00   0.03     0.08  -0.03  -0.00
                     16                     17                     18
                     A"                     A'                     A"
 Frequencies --    767.6627               784.5291               865.8416
 Red. masses --      2.9288                12.7288                 1.8415
 Frc consts  --      1.0169                 4.6159                 0.8134
 IR Inten    --     15.1092                 2.9474                12.8456
  Atom  AN      X      Y      Z        X      Y      Z        X      Y      Z
     1   6    -0.00   0.00  -0.16    -0.43   0.22  -0.00     0.00   0.00   0.11
     2   6    -0.00   0.00   0.02    -0.14   0.28   0.00    -0.00   0.00  -0.21
     3   6     0.00   0.00  -0.16     0.06   0.47   0.00     0.00   0.00   0.11
     4   6     0.00  -0.00   0.21     0.40  -0.15  -0.00     0.00  -0.00  -0.06
     5   6     0.00  -0.00  -0.17     0.06  -0.11   0.00    -0.00  -0.00   0.05
     6   6    -0.00  -0.00   0.21    -0.10  -0.43  -0.00    -0.00   0.00  -0.06
     7  17     0.00   0.00  -0.00    -0.00   0.06   0.00    -0.00  -0.00   0.00
     8  17     0.00  -0.00   0.00     0.09  -0.07   0.00     0.00  -0.00  -0.01
     9   1     0.00  -0.00   0.91     0.05  -0.07  -0.00    -0.00  -0.00   0.96
    10  17     0.00  -0.00   0.00     0.01  -0.12   0.00     0.00  -0.00  -0.01
    11  17    -0.00   0.00  -0.00    -0.05   0.03   0.00    -0.00   0.00   0.00
                     19                     20                     21
                     A'                     A'                     A'
 Frequencies --    970.4960              1095.5916              1157.7944
 Red. masses --     10.3730                11.6661                 1.5905
 Frc consts  --      5.7563                 8.2503                 1.2562
 IR Inten    --    211.3893                 0.1103               177.2222
  Atom  AN      X      Y      Z        X      Y      Z        X      Y      Z
     1   6     0.36  -0.19  -0.00    -0.30   0.15  -0.00     0.07  -0.06   0.00
     2   6    -0.36  -0.19   0.00    -0.16  -0.09   0.00    -0.02   0.05  -0.00
     3   6     0.04   0.41  -0.00    -0.04  -0.33  -0.00     0.01  -0.09   0.00
     4   6     0.34  -0.11   0.00     0.31  -0.44   0.00     0.11   0.00  -0.00
     5   6    -0.26  -0.14  -0.00     0.30   0.17  -0.00    -0.04   0.08   0.00
     6   6     0.09   0.34   0.00    -0.20   0.50   0.00    -0.06  -0.09  -0.00
     7  17    -0.00  -0.03  -0.00     0.00  -0.02   0.00     0.00   0.00  -0.00
     8  17    -0.03   0.02  -0.00     0.04  -0.02  -0.00    -0.01   0.00   0.00
     9   1    -0.35  -0.18  -0.00    -0.18  -0.10  -0.00    -0.46   0.86  -0.00
    10  17    -0.00  -0.04   0.00     0.01   0.05   0.00     0.00   0.01  -0.00
    11  17    -0.03   0.01  -0.00    -0.02   0.02  -0.00    -0.00  -0.00   0.00
                     22                     23                     24
                     A'                     A'                     A'
 Frequencies --   1304.9225              1308.9183              1381.7891
 Red. masses --     10.1372                10.7460                 3.1458
 Frc consts  --     10.1704                10.8473                 3.5388
 IR Inten    --     20.7220                 7.6316               472.6598
  Atom  AN      X      Y      Z        X      Y      Z        X      Y      Z
     1   6    -0.11   0.43   0.00    -0.31  -0.25   0.00     0.15   0.03  -0.00
     2   6    -0.28  -0.22  -0.00    -0.20   0.23  -0.00    -0.07   0.13   0.00
     3   6     0.15  -0.35   0.00     0.47  -0.01   0.00    -0.11  -0.12  -0.00
     4   6     0.21   0.39  -0.00    -0.26  -0.21  -0.00     0.09  -0.10  -0.00
     5   6    -0.18  -0.16   0.00    -0.17   0.23   0.00    -0.14   0.25   0.00
     6   6     0.30  -0.07  -0.00     0.46   0.08  -0.00     0.03  -0.13   0.00
     7  17    -0.01  -0.01   0.00    -0.00  -0.01   0.00     0.00  -0.00  -0.00
     8  17     0.01  -0.02   0.00     0.01  -0.01   0.00    -0.01   0.00   0.00
     9   1    -0.35  -0.23   0.00    -0.23   0.25   0.00     0.43  -0.79  -0.00
    10  17    -0.01   0.02  -0.00    -0.00  -0.00  -0.00     0.00   0.01  -0.00
    11  17    -0.02   0.00   0.00     0.01  -0.01   0.00     0.00  -0.00   0.00
                     25                     26                     27
                     A'                     A'                     A'
 Frequencies --   1562.6340              1598.5901              3247.4223
 Red. masses --     11.0058                 7.8235                 1.0925
 Frc consts  --     15.8338                11.7794                 6.7884
 IR Inten    --      0.5629                11.6744                 0.0422
  Atom  AN      X      Y      Z        X      Y      Z        X      Y      Z
     1   6     0.33   0.39  -0.00     0.08  -0.25   0.00    -0.00   0.00   0.00
     2   6    -0.23  -0.13   0.00    -0.24   0.44  -0.00    -0.08  -0.04  -0.00
     3   6     0.50   0.07  -0.00     0.17  -0.21   0.00     0.00  -0.00   0.00
     4   6    -0.33  -0.22  -0.00     0.05   0.23   0.00     0.00   0.00   0.00
     5   6     0.12   0.07  -0.00     0.16  -0.30  -0.00     0.00   0.00   0.00
     6   6    -0.36  -0.15   0.00    -0.22   0.08   0.00     0.00   0.00   0.00
     7  17     0.00   0.01   0.00     0.00   0.01   0.00    -0.00  -0.00  -0.00
     8  17    -0.00  -0.01  -0.00    -0.00   0.00  -0.00     0.00  -0.00   0.00
     9   1    -0.27  -0.14  -0.00     0.29  -0.54   0.00     0.88   0.47   0.00
    10  17    -0.01  -0.00   0.00    -0.00   0.00   0.00    -0.00   0.00   0.00
    11  17     0.01  -0.00  -0.00    -0.01   0.00  -0.00    -0.00   0.00   0.00

 -------------------
 - Thermochemistry -
 -------------------
 Temperature   298.150 Kelvin.  Pressure   1.00000 Atm.
 Atom     1 has atomic number  6 and mass  12.00000
 Atom     2 has atomic number  6 and mass  12.00000
 Atom     3 has atomic number  6 and mass  12.00000
 Atom     4 has atomic number  6 and mass  12.00000
 Atom     5 has atomic number  6 and mass  12.00000
 Atom     6 has atomic number  6 and mass  12.00000
 Atom     7 has atomic number 17 and mass  34.96885
 Atom     8 has atomic number 17 and mass  34.96885
 Atom     9 has atomic number  1 and mass   1.00783
 Atom    10 has atomic number 17 and mass  34.96885
 Atom    11 has atomic number 17 and mass  34.96885
 Molecular mass:   212.88324 amu.
 Principal axes and moments of inertia in atomic units:
                           1         2         3
     Eigenvalues --  1547.618323912.004955459.62327
           X           -0.47684   0.87899   0.00000
           Y            0.87899   0.47684   0.00000
           Z           -0.00000   0.00000   1.00000
 This molecule is an asymmetric top.
 Rotational symmetry number  1.
 Warning -- assumption of classical behavior for rotation
           may cause significant error
 Rotational temperatures (Kelvin)      0.05597     0.02214     0.01586
 Rotational constants (GHZ):           1.16614     0.46133     0.33056
 Zero-point vibrational energy     128117.7 (Joules/Mol)
                                   30.62086 (Kcal/Mol)
 Warning -- explicit consideration of  13 degrees of freedom as
           vibrations may cause significant error
 Vibrational temperatures:     65.51   184.03   283.43   303.82   308.83
          (Kelvin)            308.91   450.42   463.56   539.69   658.56
                              690.88   747.53   845.02   919.89   961.07
                             1104.50  1128.76  1245.75  1396.33  1576.31
                             1665.81  1877.49  1883.24  1988.09  2248.28
                             2300.01  4672.32
 
 Zero-point correction=                           0.048797 (Hartree/Particle)
 Thermal correction to Energy=                    0.057969
 Thermal correction to Enthalpy=                  0.058913
 Thermal correction to Gibbs Free Energy=         0.012376
 Sum of electronic and zero-point Energies=          -2069.958257
 Sum of electronic and thermal Energies=             -2069.949086
 Sum of electronic and thermal Enthalpies=           -2069.948142
 Sum of electronic and thermal Free Energies=        -2069.994679
 
                     E (Thermal)             CV                S
                      KCal/Mol        Cal/Mol-Kelvin    Cal/Mol-Kelvin
 Total                   36.376             32.093             97.946
 Electronic               0.000              0.000              0.000
 Translational            0.889              2.981             41.970
 Rotational               0.889              2.981             31.869
 Vibrational             34.599             26.131             24.106
 Vibration     1          0.595              1.979              5.002
 Vibration     2          0.611              1.925              2.977
 Vibration     3          0.636              1.844              2.161
 Vibration     4          0.643              1.824              2.034
 Vibration     5          0.645              1.819              2.004
 Vibration     6          0.645              1.819              2.003
 Vibration     7          0.701              1.649              1.346
 Vibration     8          0.707              1.631              1.299
 Vibration     9          0.746              1.523              1.059
 Vibration    10          0.816              1.344              0.773
 Vibration    11          0.837              1.294              0.710
 Vibration    12          0.875              1.207              0.611
 Vibration    13          0.944              1.059              0.472
                       Q            Log10(Q)             Ln(Q)
 Total Bot       0.203042D-05         -5.692415        -13.107269
 Total V=0       0.566022D+17         16.752833         38.574825
 Vib (Bot)       0.808092D-20        -20.092539        -46.264782
 Vib (Bot)    1  0.454184D+01          0.657232          1.513332
 Vib (Bot)    2  0.159465D+01          0.202664          0.466652
 Vib (Bot)    3  0.101336D+01          0.005765          0.013274
 Vib (Bot)    4  0.940141D+00         -0.026807         -0.061725
 Vib (Bot)    5  0.923578D+00         -0.034526         -0.079500
 Vib (Bot)    6  0.923306D+00         -0.034655         -0.079795
 Vib (Bot)    7  0.602940D+00         -0.219726         -0.505937
 Vib (Bot)    8  0.582693D+00         -0.234561         -0.540096
 Vib (Bot)    9  0.483657D+00         -0.315462         -0.726379
 Vib (Bot)   10  0.372298D+00         -0.429110         -0.988062
 Vib (Bot)   11  0.348241D+00         -0.458120         -1.054860
 Vib (Bot)   12  0.310799D+00         -0.507521         -1.168610
 Vib (Bot)   13  0.257549D+00         -0.589141         -1.356547
 Vib (V=0)       0.225273D+03          2.352709          5.417312
 Vib (V=0)    1  0.506928D+01          0.704946          1.623199
 Vib (V=0)    2  0.217120D+01          0.336699          0.775278
 Vib (V=0)    3  0.163000D+01          0.212188          0.488581
 Vib (V=0)    4  0.156483D+01          0.194467          0.447778
 Vib (V=0)    5  0.155024D+01          0.190398          0.438408
 Vib (V=0)    6  0.155000D+01          0.190331          0.438253
 Vib (V=0)    7  0.128329D+01          0.108323          0.249424
 Vib (V=0)    8  0.126781D+01          0.103054          0.237290
 Vib (V=0)    9  0.119565D+01          0.077603          0.178687
 Vib (V=0)   10  0.112338D+01          0.050528          0.116344
 Vib (V=0)   11  0.110932D+01          0.045057          0.103748
 Vib (V=0)   12  0.108872D+01          0.036918          0.085006
 Vib (V=0)   13  0.106243D+01          0.026302          0.060562
 Electronic      0.100000D+01          0.000000          0.000000
 Translational   0.122086D+09          8.086666         18.620237
 Rotational      0.205806D+07          6.313459         14.537276
 ***** Axes restored to original set *****
 -------------------------------------------------------------------
 Center     Atomic                   Forces (Hartrees/Bohr)
 Number     Number              X              Y              Z
 -------------------------------------------------------------------
      1        6          -0.000016178    0.000061711   -0.000000000
      2        6          -0.000074995   -0.000140369    0.000000000
      3        6           0.000060561   -0.000054252   -0.000000000
      4        6          -0.000116683    0.000015838   -0.000000000
      5        6           0.000064970   -0.000049813   -0.000000000
      6        6          -0.000051845   -0.000042660    0.000000000
      7       17          -0.000032975    0.000073683   -0.000000000
      8       17           0.000096701   -0.000028356   -0.000000000
      9        1           0.000022801    0.000035808   -0.000000000
     10       17          -0.000065998    0.000113714   -0.000000000
     11       17           0.000113643    0.000014696   -0.000000000
 -------------------------------------------------------------------
 Cartesian Forces:  Max     0.000140369 RMS     0.000057729
 FormGI is forming the generalized inverse of G from B-inverse, IUseBI=4.

 GradGradGradGradGradGradGradGradGradGradGradGradGradGradGradGradGradGrad
 Berny optimization.
 Internal  Forces:  Max     0.000121054 RMS     0.000053358
 Search for a local minimum.
 Step number   1 out of a maximum of    2
 All quantities printed in internal units (Hartrees-Bohrs-Radians)
 Second derivative matrix not updated -- analytic derivatives used.
 ITU=  0
     Eigenvalues ---    0.00751   0.01680   0.02070   0.02755   0.03112
     Eigenvalues ---    0.03235   0.03917   0.04541   0.10914   0.11664
     Eigenvalues ---    0.12280   0.15395   0.16872   0.17039   0.19566
     Eigenvalues ---    0.20375   0.21819   0.25085   0.27777   0.28603
     Eigenvalues ---    0.34994   0.37268   0.42955   0.47817   0.48669
     Eigenvalues ---    0.49320   0.52513
 Angle between quadratic step and forces=  28.34 degrees.
 Linear search not attempted -- first point.
 Iteration  1 RMS(Cart)=  0.00035406 RMS(Int)=  0.00000007
 Iteration  2 RMS(Cart)=  0.00000008 RMS(Int)=  0.00000000
 ClnCor:  largest displacement from symmetrization is 7.45D-15 for atom    10.
 Variable       Old X    -DE/DX   Delta X   Delta X   Delta X     New X
                                 (Linear)    (Quad)   (Total)
    R1        2.62354   0.00007   0.00000   0.00024   0.00024   2.62378
    R2        2.63384   0.00008   0.00000   0.00000   0.00000   2.63384
    R3        3.33182   0.00007   0.00000   0.00034   0.00034   3.33216
    R4        2.62381  -0.00006   0.00000  -0.00019  -0.00019   2.62362
    R5        2.04230   0.00000   0.00000   0.00001   0.00001   2.04231
    R6        2.63366  -0.00006   0.00000   0.00010   0.00010   2.63376
    R7        3.33224  -0.00012   0.00000  -0.00054  -0.00054   3.33170
    R8        2.59853  -0.00006   0.00000  -0.00016  -0.00016   2.59837
    R9        3.39687  -0.00010   0.00000  -0.00055  -0.00055   3.39631
   R10        2.59847  -0.00002   0.00000  -0.00010  -0.00010   2.59837
   R11        3.39619   0.00007   0.00000   0.00042   0.00042   3.39661
    A1        2.08429  -0.00003   0.00000  -0.00006  -0.00006   2.08422
    A2        2.04196  -0.00009   0.00000  -0.00039  -0.00039   2.04158
    A3        2.15693   0.00012   0.00000   0.00045   0.00045   2.15738
    A4        2.06642   0.00000   0.00000   0.00005   0.00005   2.06648
    A5        2.10863  -0.00005   0.00000  -0.00050  -0.00050   2.10813
    A6        2.10813   0.00005   0.00000   0.00045   0.00045   2.10858
    A7        2.08428   0.00002   0.00000   0.00000   0.00000   2.08428
    A8        2.04160   0.00008   0.00000   0.00035   0.00035   2.04195
    A9        2.15731  -0.00010   0.00000  -0.00035  -0.00035   2.15696
   A10        2.16315   0.00001   0.00000  -0.00010  -0.00010   2.16304
   A11        2.04228  -0.00010   0.00000  -0.00025  -0.00025   2.04203
   A12        2.07776   0.00009   0.00000   0.00035   0.00035   2.07812
   A13        2.00510   0.00004   0.00000   0.00022   0.00022   2.00533
   A14        2.16313  -0.00004   0.00000  -0.00011  -0.00011   2.16302
   A15        2.04205   0.00009   0.00000   0.00020   0.00020   2.04224
   A16        2.07800  -0.00005   0.00000  -0.00008  -0.00008   2.07792
    D1        0.00000   0.00000   0.00000  -0.00000   0.00000   0.00000
    D2        3.14159   0.00000   0.00000  -0.00000   0.00000   3.14159
    D3        3.14159   0.00000   0.00000  -0.00000   0.00000   3.14159
    D4        0.00000  -0.00000   0.00000  -0.00000   0.00000   0.00000
    D5        0.00000  -0.00000   0.00000   0.00000   0.00000   0.00000
    D6        3.14159  -0.00000   0.00000   0.00000   0.00000   3.14159
    D7        3.14159  -0.00000   0.00000   0.00000   0.00000   3.14159
    D8        0.00000   0.00000   0.00000   0.00000   0.00000   0.00000
    D9        0.00000  -0.00000   0.00000   0.00000   0.00000   0.00000
   D10        3.14159  -0.00000   0.00000   0.00000   0.00000   3.14159
   D11        3.14159   0.00000   0.00000   0.00000   0.00000   3.14159
   D12        0.00000   0.00000   0.00000  -0.00000   0.00000   0.00000
   D13        0.00000   0.00000   0.00000   0.00000   0.00000   0.00000
   D14        3.14159  -0.00000   0.00000   0.00000   0.00000   3.14159
   D15        3.14159   0.00000   0.00000   0.00000   0.00000   3.14159
   D16        0.00000  -0.00000   0.00000   0.00000   0.00000   0.00000
   D17        0.00000   0.00000   0.00000  -0.00000   0.00000   0.00000
   D18        3.14159   0.00000   0.00000  -0.00000   0.00000   3.14159
   D19        0.00000  -0.00000   0.00000  -0.00000   0.00000   0.00000
   D20        3.14159   0.00000   0.00000  -0.00000   0.00000   3.14159
         Item               Value     Threshold  Converged?
 Maximum Force            0.000121     0.000450     YES
 RMS     Force            0.000053     0.000300     YES
 Maximum Displacement     0.001116     0.001800     YES
 RMS     Displacement     0.000354     0.001200     YES
 Predicted change in Energy=-2.487711D-07
 Optimization completed.
    -- Stationary point found.
                           ----------------------------
                           !   Optimized Parameters   !
                           ! (Angstroms and Degrees)  !
 --------------------------                            --------------------------
 ! Name  Definition              Value          Derivative Info.                !
 --------------------------------------------------------------------------------
 ! R1    R(1,2)                  1.3883         -DE/DX =    0.0001              !
 ! R2    R(1,6)                  1.3938         -DE/DX =    0.0001              !
 ! R3    R(1,8)                  1.7631         -DE/DX =    0.0001              !
 ! R4    R(2,3)                  1.3885         -DE/DX =   -0.0001              !
 ! R5    R(2,9)                  1.0807         -DE/DX =    0.0                 !
 ! R6    R(3,4)                  1.3937         -DE/DX =   -0.0001              !
 ! R7    R(3,10)                 1.7633         -DE/DX =   -0.0001              !
 ! R8    R(4,5)                  1.3751         -DE/DX =   -0.0001              !
 ! R9    R(4,11)                 1.7975         -DE/DX =   -0.0001              !
 ! R10   R(5,6)                  1.3751         -DE/DX =    0.0                 !
 ! R11   R(6,7)                  1.7972         -DE/DX =    0.0001              !
 ! A1    A(2,1,6)              119.4208         -DE/DX =    0.0                 !
 ! A2    A(2,1,8)              116.996          -DE/DX =   -0.0001              !
 ! A3    A(6,1,8)              123.5832         -DE/DX =    0.0001              !
 ! A4    A(1,2,3)              118.3974         -DE/DX =    0.0                 !
 ! A5    A(1,2,9)              120.8155         -DE/DX =    0.0                 !
 ! A6    A(3,2,9)              120.7871         -DE/DX =    0.0                 !
 ! A7    A(2,3,4)              119.4203         -DE/DX =    0.0                 !
 ! A8    A(2,3,10)             116.9749         -DE/DX =    0.0001              !
 ! A9    A(4,3,10)             123.6048         -DE/DX =   -0.0001              !
 ! A10   A(3,4,5)              123.9391         -DE/DX =    0.0                 !
 ! A11   A(3,4,11)             117.0138         -DE/DX =   -0.0001              !
 ! A12   A(5,4,11)             119.0471         -DE/DX =    0.0001              !
 ! A13   A(4,5,6)              114.8839         -DE/DX =    0.0                 !
 ! A14   A(1,6,5)              123.9384         -DE/DX =    0.0                 !
 ! A15   A(1,6,7)              117.0008         -DE/DX =    0.0001              !
 ! A16   A(5,6,7)              119.0608         -DE/DX =   -0.0001              !
 ! D1    D(6,1,2,3)              0.0            -DE/DX =    0.0                 !
 ! D2    D(6,1,2,9)            180.0            -DE/DX =    0.0                 !
 ! D3    D(8,1,2,3)            180.0            -DE/DX =    0.0                 !
 ! D4    D(8,1,2,9)              0.0            -DE/DX =    0.0                 !
 ! D5    D(2,1,6,5)              0.0            -DE/DX =    0.0                 !
 ! D6    D(2,1,6,7)            180.0            -DE/DX =    0.0                 !
 ! D7    D(8,1,6,5)            180.0            -DE/DX =    0.0                 !
 ! D8    D(8,1,6,7)              0.0            -DE/DX =    0.0                 !
 ! D9    D(1,2,3,4)              0.0            -DE/DX =    0.0                 !
 ! D10   D(1,2,3,10)           180.0            -DE/DX =    0.0                 !
 ! D11   D(9,2,3,4)            180.0            -DE/DX =    0.0                 !
 ! D12   D(9,2,3,10)             0.0            -DE/DX =    0.0                 !
 ! D13   D(2,3,4,5)              0.0            -DE/DX =    0.0                 !
 ! D14   D(2,3,4,11)           180.0            -DE/DX =    0.0                 !
 ! D15   D(10,3,4,5)           180.0            -DE/DX =    0.0                 !
 ! D16   D(10,3,4,11)            0.0            -DE/DX =    0.0                 !
 ! D17   D(3,4,5,6)              0.0            -DE/DX =    0.0                 !
 ! D18   D(11,4,5,6)           180.0            -DE/DX =    0.0                 !
 ! D19   D(4,5,6,1)              0.0            -DE/DX =    0.0                 !
 ! D20   D(4,5,6,7)            180.0            -DE/DX =    0.0                 !
 --------------------------------------------------------------------------------
 GradGradGradGradGradGradGradGradGradGradGradGradGradGradGradGradGradGrad


 ----------------------------------------------------------------------

 Electric dipole moment (input orientation):
 (Debye = 10**-18 statcoulomb cm , SI units = C m)
                  (au)            (Debye)         (10**-30 SI)
   Tot        0.180751D+01      0.459423D+01      0.153247D+02
   x          0.156378D+01      0.397472D+01      0.132582D+02
   y         -0.906474D+00     -0.230403D+01     -0.768541D+01
   z          0.000000D+00      0.000000D+00      0.000000D+00

 Dipole polarizability, Alpha (input orientation).
 (esu units = cm**3 , SI units = C**2 m**2 J**-1)
 Alpha(0;0):
               (au)            (10**-24 esu)      (10**-40 SI)
   iso        0.133553D+03      0.197905D+02      0.220199D+02
   aniso      0.100671D+03      0.149179D+02      0.165984D+02
   xx         0.152386D+03      0.225813D+02      0.251251D+02
   yx         0.206517D+02      0.306027D+01      0.340501D+01
   yy         0.175960D+03      0.260746D+02      0.290119D+02
   zx         0.000000D+00      0.000000D+00      0.000000D+00
   zy         0.000000D+00      0.000000D+00      0.000000D+00
   zz         0.723122D+02      0.107156D+02      0.119227D+02

 ----------------------------------------------------------------------

 Dipole orientation:
     6          1.13008370          1.94952910          1.29198237
     6         -0.00046203         -0.00079706          2.63402058
     6         -1.13030111         -1.94990415          1.28908604
     6         -1.09766119         -1.89359640         -1.34376792
     6          0.00114482          0.00197495         -2.74084184
     6          1.09906880          1.89602469         -1.34112921
    17          2.59805047          4.48194676         -2.95363680
    17          2.54342138          4.38770508          3.06929102
     1         -0.00134201         -0.00231513          4.67632076
    17         -2.54457544         -4.38969596          3.06420139
    17         -2.59575834         -4.47799257         -2.96095553

 Electric dipole moment (dipole orientation):
 (Debye = 10**-18 statcoulomb cm , SI units = C m)
                  (au)            (Debye)         (10**-30 SI)
   Tot        0.180751D+01      0.459423D+01      0.153247D+02
   x          0.000000D+00      0.000000D+00      0.000000D+00
   y          0.000000D+00      0.000000D+00      0.000000D+00
   z          0.180751D+01      0.459423D+01      0.153247D+02

 Dipole polarizability, Alpha (dipole orientation).
 (esu units = cm**3 , SI units = C**2 m**2 J**-1)
 Alpha(0;0):
               (au)            (10**-24 esu)      (10**-40 SI)
   iso        0.133553D+03      0.197905D+02      0.220199D+02
   aniso      0.100671D+03      0.149179D+02      0.165984D+02
   xx         0.101396D+03      0.150254D+02      0.167180D+02
   yx         0.501736D+02      0.743496D+01      0.827251D+01
   yy         0.158868D+03      0.235418D+02      0.261937D+02
   zx         0.177114D-01      0.262456D-02      0.292022D-02
   zy         0.305543D-01      0.452768D-02      0.503772D-02
   zz         0.140394D+03      0.208043D+02      0.231479D+02

 ----------------------------------------------------------------------
 1\1\GINC-SH02-02N47\Freq\RM062X\6-311++G(d,p)\C6H1Cl4(1-)\JLAPIER\03-A
 pr-2026\0\\#N Geom=AllCheck Guess=TCheck SCRF=Check GenChk RM062X/6-31
 1++G(d,p) Freq\\1,2,4,5 Tetrachlorobenzene anion radical\\-1,1\C,1.189
 5103359,0.6887739542,0.\C,1.205663675,-0.6994506776,0.\C,-0.0079597888
 ,-1.3739486167,0.\C,-1.19606156,-0.6454325495,0.\C,-1.2542073059,0.728
 4227257,0.\C,-0.0323940547,1.3592482985,0.\Cl,0.0225941251,3.155594250
 1,0.\Cl,2.7511044601,1.5073305052,0.\H,2.1402045517,-1.2422493325,0.\C
 l,0.0563223586,-3.1361193845,0.\Cl,-2.729201797,-1.5838591729,0.\\Vers
 ion=ES64L-G16RevB.01\State=1-A'\HF=-2070.0070548\RMSD=5.849e-09\RMSF=5
 .773e-05\ZeroPoint=0.0487974\Thermal=0.0579688\Dipole=1.5637762,-0.906
 4743,0.\DipoleDeriv=1.1041663,0.400003,0.,0.4954037,0.1646459,0.,0.,0.
 ,0.0047407,-0.2966798,-0.0755343,0.,-0.0779318,-0.3832879,0.,0.,0.,-0.
 1647365,0.0032153,-0.1282159,0.,-0.2244577,1.2459737,0.,0.,0.,0.003241
 8,1.0432855,0.7052021,0.,1.0043153,0.7596656,0.,0.,0.,0.0255528,-0.784
 8228,-0.3903775,0.,-0.3873368,-1.229691,0.,0.,0.,-0.4014558,0.0866525,
 0.449694,0.,0.1538002,1.7022156,0.,0.,0.,0.0222366,-0.1403987,-0.04782
 68,0.,-0.2201033,-1.3011711,0.,0.,0.,-0.1970204,-0.9930802,-0.4230603,
 0.,-0.3705491,-0.2880962,0.,0.,0.,-0.1224055,-0.0052273,0.0326388,0.,0
 .0329219,0.0324254,0.,0.,0.,0.1498461,-0.118622,0.1278561,0.,0.0763511
 ,-1.155822,0.,0.,0.,-0.1211808,-0.8984889,-0.6503794,0.,-0.4824134,-0.
 5468582,0.,0.,0.,-0.198819\Polar=152.3859625,20.6517304,175.9600717,0.
 ,0.,72.3122132\Quadrupole=-3.076501,-6.7531447,9.8296457,-3.2245407,0.
 ,0.\PG=CS [SG(C6H1Cl4)]\NImag=0\\0.51116848,-0.06190699,0.61965833,0.,
 0.,0.12464664,-0.10513348,0.05118544,0.,0.74391831,-0.02436831,-0.3420
 4802,0.,-0.04109253,0.69718724,0.,0.,-0.06541785,0.,0.,0.12281331,0.03
 506031,-0.09226763,0.,-0.29488117,-0.05754519,0.,0.64686575,-0.0230900
 1,-0.03053852,0.,-0.13309887,-0.15144247,0.,0.01665424,0.48757703,0.,0
 .,0.01133665,0.,0.,-0.06545126,0.,0.,0.12590292,-0.02843573,0.04099700
 ,0.,-0.05915368,-0.03231753,0.,-0.25240149,0.13871755,0.,0.48649729,0.
 02643432,-0.05620309,0.,0.03803139,0.06065246,0.,0.05682742,-0.1378370
 1,0.,-0.08562188,0.53302607,0.,0.,-0.01126016,0.,0.,0.01674471,0.,0.,-
 0.07255777,0.,0.,0.13223037,-0.04546673,0.02634358,0.,-0.01621206,-0.0
 3141959,0.,0.04081276,0.00921060,0.,-0.07935481,-0.00436283,0.,0.37002
 681,-0.03980552,0.06128696,0.,-0.03135686,-0.05214966,0.,0.07528331,-0
 .02564276,0.,0.01631759,-0.30382016,0.,0.14830487,0.53842781,0.,0.,0.0
 2357885,0.,0.,-0.00972347,0.,0.,0.02356499,0.,0.,-0.05990683,0.,0.,0.0
 7652285,-0.25013620,0.05964617,0.,0.02843562,0.08855316,0.,-0.07829269
 ,-0.00228583,0.,0.01993942,-0.05031799,0.,-0.25487397,-0.10538476,0.,0
 .59668362,0.14080647,-0.13891082,0.,0.01825201,-0.02728321,0.,0.012900
 02,-0.00625936,0.,-0.04153714,-0.03209064,0.,-0.08449271,-0.13017401,0
 .,-0.02342212,0.42207965,0.,0.,-0.07256929,0.,0.,0.01683490,0.,0.,-0.0
 1117265,0.,0.,0.00243446,0.,0.,-0.06010662,0.,0.,0.13273470,-0.0023663
 9,0.02108159,0.,-0.00271757,-0.00044980,0.,0.00004348,-0.00013662,0.,-
 0.00001357,-0.00347481,0.,-0.00560418,-0.02782760,0.,-0.03087993,0.004
 24188,0.,0.04574226,-0.00087934,-0.04196371,0.,0.00540281,0.00017270,0
 .,-0.00090518,0.00112427,0.,0.00587423,-0.00207518,0.,-0.04686321,-0.0
 3900013,0.,0.03660945,-0.08623979,0.,-0.00220651,0.17349915,0.,0.,0.00
 337654,0.,0.,0.00326608,0.,0.,0.00004338,0.,0.,0.00647043,0.,0.,0.0004
 4958,0.,0.,-0.02297896,0.,0.,0.00996374,-0.11477631,-0.04221933,0.,-0.
 01782937,-0.01097022,0.,-0.00012121,0.00075139,0.,0.00397656,0.0029920
 5,0.,-0.00812642,0.00634696,0.,-0.02990649,-0.02887445,0.,-0.00518795,
 0.00299774,0.,0.17359309,-0.04349470,-0.06244259,0.,-0.03751852,-0.018
 27015,0.,0.00254426,-0.00191250,0.,0.00011275,0.00070612,0.,-0.0014270
 7,0.00158157,0.,0.00169059,-0.00192909,0.,0.00857771,-0.00036726,0.,0.
 07229292,0.08365945,0.,0.,-0.02120032,0.,0.,0.00376472,0.,0.,0.0052825
 9,0.,0.,0.00149876,0.,0.,0.00244855,0.,0.,0.00282272,0.,0.,0.00003486,
 0.,0.,0.00930863,0.00176578,-0.00361417,0.,-0.27648829,0.12981610,0.,-
 0.01680860,0.01578515,0.,-0.00225389,-0.00281519,0.,0.00007161,-0.0005
 6314,0.,0.00116509,-0.00039269,0.,0.00026947,-0.00031372,0.,0.00099641
 ,-0.00114902,0.,0.29176160,0.02640142,-0.00978288,0.,0.12984215,-0.128
 21369,0.,-0.01420548,0.00871624,0.,-0.00233092,-0.00068586,0.,-0.00057
 172,-0.00057366,0.,-0.00088334,-0.00411200,0.,0.00073338,-0.00139192,0
 .,0.00035910,0.00030181,0.,-0.13698291,0.13524703,0.,0.,0.00215180,0.,
 0.,-0.02984774,0.,0.,0.00214089,0.,0.,0.00403419,0.,0.,0.00019686,0.,0
 .,0.00402908,0.,0.,0.00036498,0.,0.,-0.00274972,0.,0.,0.02210491,-0.00
 291896,0.00087397,0.,0.00272744,-0.02564628,0.,-0.03872842,0.00001338,
 0.,0.00279594,0.02049835,0.,-0.00292498,0.00156200,0.,0.00015321,-0.00
 202852,0.,0.00041110,0.00086153,0.,0.00020867,-0.00063657,0.,0.0006824
 7,-0.00123349,0.,0.04373933,-0.00079167,0.00104133,0.,0.00059340,-0.03
 885038,0.,0.00107406,-0.14078227,0.,-0.00975946,-0.03473920,0.,0.00932
 230,-0.00350775,0.,0.00083460,0.00449355,0.,-0.00061631,-0.00375546,0.
 ,-0.00118367,-0.00081580,0.,0.00031535,0.00045484,0.,-0.00171154,0.215
 16986,0.,0.,0.00531574,0.,0.,0.00375503,0.,0.,-0.02240542,0.,0.,0.0028
 3923,0.,0.,0.00246839,0.,0.,0.00148571,0.,0.,-0.00150104,0.,0.,0.00029
 137,0.,0.,-0.00278962,0.,0.,0.01050474,0.00123922,-0.00011963,0.,-0.00
 266576,0.00544018,0.,-0.04154873,-0.02252098,0.,-0.09159605,0.00180916
 ,0.,0.00165197,-0.04287685,0.,-0.00228768,0.00454725,0.,0.00030327,-0.
 00057781,0.,-0.00282699,-0.00099235,0.,-0.00116165,-0.00112818,0.,-0.0
 0614581,0.00192294,0.,0.14503820,0.00069433,-0.00009701,0.,-0.00024042
 ,0.00024519,0.,-0.00035985,-0.00300265,0.,-0.03045219,-0.02693351,0.,-
 0.02404422,-0.04642820,0.,-0.00503994,0.00042573,0.,0.00007710,-0.0000
 0266,0.,-0.00249249,-0.00051157,0.,-0.00008576,0.00004010,0.,0.0074471
 8,0.00129127,0.,0.05449628,0.07497331,0.,0.,0.00004141,0.,0.,0.0032615
 8,0.,0.,0.00331568,0.,0.,-0.02252740,0.,0.,0.00050685,0.,0.,0.00648594
 ,0.,0.,0.00051040,0.,0.,-0.00150215,0.,0.,0.00036436,0.,0.,0.00003589,
 0.,0.,0.00950744\\0.00001618,-0.00006171,0.,0.00007500,0.00014037,0.,-
 0.00006056,0.00005425,0.,0.00011668,-0.00001584,0.,-0.00006497,0.00004
 981,0.,0.00005185,0.00004266,0.,0.00003297,-0.00007368,0.,-0.00009670,
 0.00002836,0.,-0.00002280,-0.00003581,0.,0.00006600,-0.00011371,0.,-0.
 00011364,-0.00001470,0.\\\@


 Other things may change us, but we start and end with family.
 -- Anthony Brandt
 Job cpu time:       0 days  0 hours 27 minutes 31.2 seconds.
 Elapsed time:       0 days  0 hours  6 minutes 54.8 seconds.
 File lengths (MBytes):  RWF=    137 Int=      0 D2E=      0 Chk=      8 Scr=      1
 Normal termination of Gaussian 16 at Fri Apr  3 13:31:27 2026.
