%mem=8GB
%nprocshare=4
%oldchk=geometry_chks/12345ClBz.chk
%chk=frequency_chks/12345ClBz_Freq.chk
# opt freq 6-311++g(d,p) guess=read geom=allcheck m062x

12345ClBz

