%mem=8GB
%nprocshare=4
%oldchk=geometry_chks/123456-1_3456-ClBzNeutralRadical.chk
%chk=frequency_chks/123456-1_3456-ClBzNeutralRadical_Freq.chk
# opt freq 6-311++g(d,p) guess=read geom=allcheck m062x

123456-1_3456-ClBzNeutralRadical

