%mem=8GB
%nprocshare=4
%chk=frequency_chks/1234tetrachlorobenzene_anion_product_Freq.chk
# opt freq 6-311++g(d,p) m062x

1,2,4, trichlorobenzene anion radical

-1 1
C       -1.2435901664      1.1869315480      0.0000000000                 
C       -0.0344771379      1.8895482651      0.0000000000                 
C        1.1834713449      1.1974218754      0.0000000000                 
C        1.1854174666     -0.2087418870     -0.0000000000                 
C       -0.0267660067     -0.9052275404      0.0000000000                 
C       -1.2392647663     -0.2116670598      0.0000000000                 
Cl      -2.7479597569     -1.1022717076      0.0000000000                 
Cl       2.6850946846      2.1119513513     -0.0000000000                 
Cl       2.6820466146     -1.1270252544     -0.0000000000                 
H       -0.0453384153      2.9721245817      0.0000000000                 
H       -2.1805094361      1.7292562852      0.0000000000           

