%mem=8GB
%nprocshare=4
%chk=frequency_chks/1235tetrachlorobenzene_anion_product_Freq.chk
# opt freq 6-311++g(d,p) m062x

1,3,5, trichlorobenzene anion radical

-1 1
C       -1.2464670973      1.0874268357      0.0000000000                 
C       -0.0281006253      1.7767146232      0.0000000000                 
C        1.1759120659      1.0671113456      0.0000000000                 
C        1.1665119907     -0.3304204949     -0.0000000000                 
C       -0.0506112230     -1.0219015205      0.0000000000                 
C       -1.2580611120     -0.3127977433      0.0000000000                 
Cl      -2.7839868098     -1.1779003325      0.0000000000                 
Cl       2.6831198999     -1.2075013571      0.0000000000                 
Cl      -0.0018835018      3.5284803110     -0.0000000000                 
H       -2.1794012007      1.6369751138      0.0000000000                 
H       -0.0581444693     -2.1046354790      0.0000000000           

