%mem=8GB
%nprocshare=4
%oldchk=geometry_chks/1235-1_35-ClBzNeutralRadical.chk
%chk=frequency_chks/1235-1_35-ClBzNeutralRadical_Freq.chk
# opt freq 6-311++g(d,p) guess=read geom=allcheck m062x

1235-1_35-ClBzNeutralRadical

