%mem=8GB
%nprocshare=4
%chk=frequency_chks/123trichlorobenzene_anion_product_Freq.chk
# opt freq 6-311++g(d,p) m062x

1,3 dichlorobenzene anion radical

-1 1
C       -1.1996891975      1.0838736976      0.0000000000                 
C        0.0146476015      1.7763754236     -0.0000000000                 
C        1.2228171291      1.0691238880     -0.0000000000                 
C        1.2133190299     -0.3299621889     -0.0000000000                 
C       -0.0025436898     -1.0222120114      0.0000000000                 
C       -1.2101529829     -0.3140043562      0.0000000000                 
Cl      -2.7388080683     -1.1699193765      0.0000000000                 
Cl       0.0140072428      3.5283390468      0.0000000000                 
H       -0.0050117833     -2.1047513419      0.0000000000                 
H        2.1659740412      1.6004924180     -0.0000000000                 
H        2.1471674313     -0.8771250349     -0.0000000000                 

