%mem=8GB
%nprocshare=4
%chk=frequency_chks/1245tetrachlorobenzene_anion_product_Freq.chk
# opt freq 6-311++g(d,p) m062x

1,2,4, trichlorobenzene anion radical

-1 1
C       -1.2166968106      1.0911093804     -0.0000000000                 
C        0.0005587429      1.7843454402      0.0000000000                 
C        1.2101829547      1.0814668066      0.0000000000                 
C        1.2059946608     -0.3148863174     -0.0000000000                 
C       -0.0042206342     -1.0122096976      0.0000000000                 
C       -1.2192005826     -0.3155791161     -0.0000000000                 
Cl      -2.7234416010     -1.2260660576      0.0000000000                 
Cl      -2.7180065837      2.0064728215     -0.0000000000                 
Cl       2.7352006077      1.9439776141     -0.0000000000                 
H        0.0062651474     -2.0942198355     -0.0000000000                 
H        0.0064708267      2.8671659533     -0.0000000000         

