%mem=8GB
%nprocshare=4
%chk=frequency_chks/124trichlorobenzene_anion_product_Freq.chk
# opt freq 6-311++g(d,p) m062x

1,4 dichlorobenzene anion radical

-1 1
C       -1.2520981970      1.1148242951      0.0000000000                 
C       -0.0376630424      1.8068875208      0.0000000000                 
C        1.1710655689      1.1003448492     -0.0000000000                 
C        1.1608486669     -0.2998765994     -0.0000000000                 
C       -0.0554835352     -0.9913022742      0.0000000000                 
C       -1.2628175490     -0.2829236579      0.0000000000                 
Cl      -2.7915528123     -1.1387767947      0.0000000000                 
H       -0.0399436667      2.8888670203      0.0000000000                 
H       -0.0584599690     -2.0738419755      0.0000000000                 
Cl       2.6956502973      1.9677602338     -0.0000000000                 
H        2.0921809924     -0.8517324533     -0.0000000000               

