%mem=8GB
%nprocshare=4
%chk=frequency_chks/12dichlorobenzene_anion_product_Freq.chk
# opt freq 6-311++g(d,p) m062x

chlorobenzene anion radical

-1 1
C       -1.1973536328      1.1487747369      0.0000000000                 
C        0.0195047811      1.8368508126      0.0000000000                 
C        1.2247120906      1.1265592719     -0.0000000000                 
C        1.2116885578     -0.2725052605     -0.0000000000                 
C       -0.0063371331     -0.9612019079      0.0000000000                 
C       -1.2119884991     -0.2492840852      0.0000000000                 
Cl      -2.7431521135     -1.1008190857      0.0000000000                 
H        0.0257043969      2.9186062176      0.0000000000                 
H       -0.0120296182     -2.0437346094      0.0000000000                 
H        2.1669250067      1.6591780138     -0.0000000000                 
H        2.1440529176     -0.8221939399     -0.0000000000                    

