%mem=8GB
%nprocshare=4
%oldchk=geometry_chks/135-13_-ClBzNeutralRadical.chk
%chk=frequency_chks/135-13_-ClBzNeutralRadical_Freq.chk
# opt freq 6-311++g(d,p) guess=read geom=allcheck m062x

135-13_-ClBzNeutralRadical

