%mem=8GB
%nprocshare=4
%chk=frequency_chks/135trichlorobenzene_anion_product_Freq.chk
# opt freq 6-311++g(d,p) m062x

1,3 dichlorobenzene anion radical

-1 1
C       -1.2295213361      1.1036775420      0.0000000000                 
C       -0.0153533331      1.8012677155     -0.0000000000                 
C        1.1944921091      1.0969228529     -0.0000000000                 
C        1.1898979318     -0.3006796103      0.0000000000                 
C       -0.0214166004     -0.9978385490      0.0000000000                 
C       -1.2330747494     -0.2966166532      0.0000000000                 
Cl      -2.7536377704     -1.1711135344      0.0000000000                 
Cl      -0.0101482891      3.5553571678      0.0000000000                 
H       -2.1659732874      1.6472432857      0.0000000000                 
H       -0.0144918141     -2.0798052493      0.0000000000                 
H        2.1374408191      1.6275333378     -0.0000000000               

