%mem=8GB
%nprocshare=4
%chk=frequency_chks/13dichlorobenzene_anion_product_Freq.chk
# opt freq 6-311++g(d,p) m062x

chlorobenzene anion radical

-1 1
C       -1.1781304888      1.2096975506     -0.0000000000                 
C        0.0526937777      1.8725615783     -0.0000000000                 
C        1.2430053388      1.1398184920      0.0000000000                 
C        1.2036210069     -0.2584287226     -0.0000000000                 
C       -0.0272180015     -0.9237348286     -0.0000000000                 
C       -1.2199822394     -0.1899478711      0.0000000000                 
Cl      -2.7638244054     -1.0226441509      0.0000000000                 
H       -0.0528108879     -2.0059919885      0.0000000000                 
H        2.1930750961      1.6571387448     -0.0000000000                 
H        2.1254226321     -0.8256558800     -0.0000000000                 
H       -2.0943354851      1.7852657435     -0.0000000000                   

