%mem=8GB
%nprocshare=4
%chk=frequency_chks/14dichlorobenzene_anion_product_Freq.chk
# opt freq 6-311++g(d,p) m062x

chlorobenzene anion radical

-1 1
C       -1.1732780424      1.2286330508     -0.0000000000                 
C        0.0595008015      1.8900855264     -0.0000000000                 
C        1.2480572764      1.1544850433     -0.0000000000                 
C        1.2065075402     -0.2426666981     -0.0000000000                 
C       -0.0249647421     -0.9065137677      0.0000000000                 
C       -1.2167161333     -0.1710999997     -0.0000000000                 
Cl      -2.7615210858     -1.0020310699      0.0000000000                 
H       -0.0518825701     -1.9887332872      0.0000000000                 
H        2.1288508756     -0.8079496405      0.0000000000                 
H       -2.0910237178      1.8028154820     -0.0000000000                 
H        0.0964279784      2.9712441181     -0.0000000000                     

