%mem=8GB
%nprocshare=4
%oldchk=geometry_chks/benzene.chk
%chk=frequency_chks/benzene_Freq.chk
# opt freq 6-311++g(d,p) guess=read geom=allcheck m062x

benzene

