%mem=8GB
%nprocshare=4
%chk=frequency_chks/chlorobenzene_anion_product_Freq.chk
# opt freq 6-311++g(d,p) m062x

benzene anion radical

-1 1
C       -1.2263775485      1.1995693860     -0.0000000000                 
C        0.0061623697      1.8617114959     -0.0000000000                 
C        1.1950283439      1.1259601148     -0.0000000000                 
C        1.1534512502     -0.2715389886     -0.0000000000                 
C       -0.0784768485     -0.9348187051      0.0000000000                 
C       -1.2686723598     -0.1990490406     -0.0000000000                 
H       -2.2219006610     -0.7117071842      0.0000000000                 
H       -0.1107943980     -2.0166760670      0.0000000000                 
H        2.0756270747     -0.8370968808      0.0000000000                 
H       -2.1467963418      1.7690331870     -0.0000000000                 
H        0.0427072998      2.9428814402     -0.0000000000                     

