%mem=8GB
%nprocshare=4
%chk=frequency_chks/chloride.chk
# opt freq 6-311++g(d,p) m062x

chloride

-1 0
Cl