%mem=8GB
%nprocshare=4
%oldchk=mono/monobromobenzene.chk
%chk=mono/monobromobenzene_OptFreq.chk
# opt freq 6-311++g(d,p) guess=read geom=allcheck m062x

Monobromobenzene gas

0 1

