%mem=8GB
%nprocshare=4
%chk=frequency_chks/Pentachlorobenzene_anion_product_Freq.chk
# opt freq 6-311++g(d,p) m062x

1,2,4,5 Tetrachlorobenzene anion radical

-1 2
C        1.2105890000      0.6948850000      0.0000000000                 
C        1.2105880000     -0.6948840000      0.0000000000                 
C        0.0000130000     -1.3715790000      0.0000000000                 
C       -1.2105630000     -0.6948880000      0.0000000000                 
C       -1.2105620000      0.6948870000      0.0000000000                 
C        0.0000130000      1.3715790000      0.0000000000                 
Cl      -0.0000170000      3.1225050000      0.0000000000                 
Cl       2.1454750000      1.2416590000      0.0000000000                 
H        2.1454750000     -1.2416590000      0.0000000000                 
Cl      -0.0000180000     -3.1225050000      0.0000000000                 
Cl      -2.1454180000     -1.2416900000      0.0000000000 

